Primitive Cell
  1.000000
    4.49409509650214    0.00000000000000    0.00000000000000
    0.00000000000000    5.71671662469128    0.00000000000000
   -0.00622095108866    0.00000000000000    4.93142936355918
  C   N   V 
   1   3   8
DIRECT
    0.0000000000000000    0.6270149049347455    0.5000000000000000     C1
    0.0000000000000000    0.3727569780964509    0.0000000000000000     N1
    0.5000000000000000    0.8746332590170633    0.0000000000000000     N2
    0.5000000000000000    0.1266259018608007    0.5000000000000000     N3
    0.7424043491234359    0.6168355833645484    0.1683426708413446     V1
    0.7573344611797884    0.1192062575946847    0.1714693408314918     V2
    0.2572633068312096    0.3802570994937731    0.3272197146961039     V3
    0.2447034643079948    0.8831853951864583    0.3278378757274326     V4
    0.7552965356920052    0.8831853951864583    0.6721621242725674     V5
    0.7427366931687904    0.3802570994937731    0.6727802853038961     V6
    0.2426655388202116    0.1192062575946847    0.8285306591685082     V7
    0.2575956508765641    0.6168355833645484    0.8316573291586554     V8
