Si N                                    
   1.00000000000000     
     7.6604927203564896   -0.0000000019898238    0.0000000000000000
    -3.8302463584550073    6.6341813023294200    0.0000000000000000
     0.0000000000000000    0.0000000000000000    2.9250290725324302
   N    Si
     8     6
Direct
  0.0307648548034000  0.3300062823713162  0.2517618743718052
  0.6699937176286840  0.7007585724320838  0.2517618743718052
  0.2992414275679162  0.9692351451965999  0.2517618743718052
  0.6666666666669983  0.3333333333330017  0.2517292864263740
  0.7007585724320838  0.0307648548034000  0.7517618743718052
  0.3300062823713162  0.2992414275679162  0.7517618743718052
  0.9692351451965999  0.6699937176286840  0.7517618743718052
  0.3333333333330017  0.6666666666669983  0.7517292864263740
  0.7688568433659936  0.1749832960747988  0.2517628696407398
  0.4061264527078032  0.2311431566340063  0.2517628696407398
  0.8250167039252012  0.5938735472921968  0.2517628696407398
  0.1749832960747988  0.4061264527078032  0.7517628696407400
  0.5938735472921968  0.7688568433659936  0.7517628696407400
  0.2311431566340063  0.8250167039252012  0.7517628696407400
 
  0.00000000E+00  0.00000000E+00  0.00000000E+00
  0.00000000E+00  0.00000000E+00  0.00000000E+00
  0.00000000E+00  0.00000000E+00  0.00000000E+00
  0.00000000E+00  0.00000000E+00  0.00000000E+00
  0.00000000E+00  0.00000000E+00  0.00000000E+00
  0.00000000E+00  0.00000000E+00  0.00000000E+00
  0.00000000E+00  0.00000000E+00  0.00000000E+00
  0.00000000E+00  0.00000000E+00  0.00000000E+00
  0.00000000E+00  0.00000000E+00  0.00000000E+00
  0.00000000E+00  0.00000000E+00  0.00000000E+00
  0.00000000E+00  0.00000000E+00  0.00000000E+00
  0.00000000E+00  0.00000000E+00  0.00000000E+00
  0.00000000E+00  0.00000000E+00  0.00000000E+00
  0.00000000E+00  0.00000000E+00  0.00000000E+00
