Be V
1.0
  3.613797468876   2.086426941452   3.526760312000
 -3.613797468876   2.086426941452   3.526760312000
  0.000000000000  -4.172853882905   3.526760312000
Be V
17 2
Direct
  0.500000000000   0.000000000000   0.000000000000
  0.698213930400   0.301786069600   0.000000000000
  0.000000000000   0.500000000000   0.000000000000
  0.301786069600   0.698213930400   0.000000000000
  0.100745907020   0.100745907020   0.100745907020
  0.651216052445   0.651216052445   0.162028063230
  0.698213930400   0.000000000000   0.301786069600
  0.000000000000   0.698213930400   0.301786069600
  0.837971936770   0.348783947555   0.348783947555
  0.348783947555   0.837971936770   0.348783947555
  0.000000000000   0.000000000000   0.500000000000
  0.651216052445   0.162028063230   0.651216052445
  0.162028063230   0.651216052445   0.651216052445
  0.301786069600   0.000000000000   0.698213930400
  0.000000000000   0.301786069600   0.698213930400
  0.348783947555   0.348783947555   0.837971936770
  0.899254092980   0.899254092980   0.899254092980
  0.337829403685   0.337829403685   0.337829403685
  0.662170596315   0.662170596315   0.662170596315
