generated by phonopy
   1.0
     4.1041934947937966   -7.1243537013660205    0.0000000000000000
     4.1041934947937966    7.1243537013660205    0.0000000000000000
     0.0000000000000000    0.0000000000000000   13.4243821891172423
B Be Cr
  16   48   32
Direct
  0.1642874206511880  0.3357125793488120  0.1250000000000000
  0.6642874206511880  0.3357125793488120  0.1250000000000000
  0.1642874206511880  0.8357125793488120  0.1250000000000000
  0.6642874206511880  0.8357125793488120  0.1250000000000000
  0.1642874206511880  0.3357125793488120  0.6250000000000000
  0.6642874206511880  0.3357125793488120  0.6250000000000000
  0.1642874206511880  0.8357125793488120  0.6250000000000000
  0.6642874206511880  0.8357125793488120  0.6250000000000000
  0.3357125793488120  0.1642874206511880  0.3750000000000000
  0.8357125793488120  0.1642874206511880  0.3750000000000000
  0.3357125793488120  0.6642874206511880  0.3750000000000000
  0.8357125793488120  0.6642874206511880  0.3750000000000000
  0.3357125793488120  0.1642874206511880  0.8750000000000000
  0.8357125793488120  0.1642874206511880  0.8750000000000000
  0.3357125793488120  0.6642874206511880  0.8750000000000000
  0.8357125793488120  0.6642874206511880  0.8750000000000000
  0.2500000000000000  0.2500000000000000  0.0000000000000000
  0.7500000000000000  0.2500000000000000  0.0000000000000000
  0.2500000000000000  0.7500000000000000  0.0000000000000000
  0.7500000000000000  0.7500000000000000  0.0000000000000000
  0.2500000000000000  0.2500000000000000  0.5000000000000000
  0.7500000000000000  0.2500000000000000  0.5000000000000000
  0.2500000000000000  0.7500000000000000  0.5000000000000000
  0.7500000000000000  0.7500000000000000  0.5000000000000000
  0.1640539050545899  0.0792965799174425  0.1250000000000000
  0.6640539050545899  0.0792965799174425  0.1250000000000000
  0.1640539050545899  0.5792965799174425  0.1250000000000000
  0.6640539050545899  0.5792965799174425  0.1250000000000000
  0.1640539050545899  0.0792965799174425  0.6250000000000000
  0.6640539050545899  0.0792965799174425  0.6250000000000000
  0.1640539050545899  0.5792965799174425  0.6250000000000000
  0.6640539050545899  0.5792965799174425  0.6250000000000000
  0.4207034200825575  0.3359460949454100  0.1250000000000000
  0.9207034200825575  0.3359460949454100  0.1250000000000000
  0.4207034200825575  0.8359460949454101  0.1250000000000000
  0.9207034200825575  0.8359460949454101  0.1250000000000000
  0.4207034200825575  0.3359460949454100  0.6250000000000000
  0.9207034200825575  0.3359460949454100  0.6250000000000000
  0.4207034200825575  0.8359460949454101  0.6250000000000000
  0.9207034200825575  0.8359460949454101  0.6250000000000000
  0.2500000000000000  0.2500000000000000  0.2500000000000000
  0.7500000000000000  0.2500000000000000  0.2500000000000000
  0.2500000000000000  0.7500000000000000  0.2500000000000000
  0.7500000000000000  0.7500000000000000  0.2500000000000000
  0.2500000000000000  0.2500000000000000  0.7500000000000000
  0.7500000000000000  0.2500000000000000  0.7500000000000000
  0.2500000000000000  0.7500000000000000  0.7500000000000000
  0.7500000000000000  0.7500000000000000  0.7500000000000000
  0.0792965799174425  0.1640539050545899  0.3750000000000000
  0.5792965799174425  0.1640539050545899  0.3750000000000000
  0.0792965799174425  0.6640539050545899  0.3750000000000000
  0.5792965799174425  0.6640539050545899  0.3750000000000000
  0.0792965799174425  0.1640539050545899  0.8750000000000000
  0.5792965799174425  0.1640539050545899  0.8750000000000000
  0.0792965799174425  0.6640539050545899  0.8750000000000000
  0.5792965799174425  0.6640539050545899  0.8750000000000000
  0.3359460949454100  0.4207034200825575  0.3750000000000000
  0.8359460949454101  0.4207034200825575  0.3750000000000000
  0.3359460949454100  0.9207034200825575  0.3750000000000000
  0.8359460949454101  0.9207034200825575  0.3750000000000000
  0.3359460949454100  0.4207034200825575  0.8750000000000000
  0.8359460949454101  0.4207034200825575  0.8750000000000000
  0.3359460949454100  0.9207034200825575  0.8750000000000000
  0.8359460949454101  0.9207034200825575  0.8750000000000000
  0.4153115807907423  0.0846884192092578  0.0313497631362094
  0.9153115807907423  0.0846884192092578  0.0313497631362094
  0.4153115807907423  0.5846884192092577  0.0313497631362094
  0.9153115807907423  0.5846884192092577  0.0313497631362094
  0.4153115807907423  0.0846884192092578  0.5313497631362094
  0.9153115807907423  0.0846884192092578  0.5313497631362094
  0.4153115807907423  0.5846884192092577  0.5313497631362094
  0.9153115807907423  0.5846884192092577  0.5313497631362094
  0.4153115807907423  0.0846884192092578  0.2186502368637905
  0.9153115807907423  0.0846884192092578  0.2186502368637905
  0.4153115807907423  0.5846884192092577  0.2186502368637905
  0.9153115807907423  0.5846884192092577  0.2186502368637905
  0.4153115807907423  0.0846884192092578  0.7186502368637905
  0.9153115807907423  0.0846884192092578  0.7186502368637905
  0.4153115807907423  0.5846884192092577  0.7186502368637905
  0.9153115807907423  0.5846884192092577  0.7186502368637905
  0.0846884192092578  0.4153115807907423  0.2813497631362094
  0.5846884192092577  0.4153115807907423  0.2813497631362094
  0.0846884192092578  0.9153115807907423  0.2813497631362094
  0.5846884192092577  0.9153115807907423  0.2813497631362094
  0.0846884192092578  0.4153115807907423  0.7813497631362094
  0.5846884192092577  0.4153115807907423  0.7813497631362094
  0.0846884192092578  0.9153115807907423  0.7813497631362094
  0.5846884192092577  0.9153115807907423  0.7813497631362094
  0.0846884192092578  0.4153115807907423  0.4686502368637906
  0.5846884192092577  0.4153115807907423  0.4686502368637906
  0.0846884192092578  0.9153115807907423  0.4686502368637906
  0.5846884192092577  0.9153115807907423  0.4686502368637906
  0.0846884192092578  0.4153115807907423  0.9686502368637906
  0.5846884192092577  0.4153115807907423  0.9686502368637906
  0.0846884192092578  0.9153115807907423  0.9686502368637906
  0.5846884192092577  0.9153115807907423  0.9686502368637906
