Cr N                                    
   1.00000000000000     
     4.7831083702027009   -0.0000000000000017    0.0000000000000000
    -2.3915541851018531    4.1422933576503951   -0.0000000000000000
     0.0000000000000000    0.0000000000000000    4.4038692413317388
   Cr   N 
     6     3
Direct
  0.3259157272918208 -0.0000000000000000  0.2536740330592143
  0.0000000000000000  0.3259157272918208  0.2536740330592143
  0.6740842727081793  0.6740842727081793  0.2536740330592143
  0.6740842727081793  0.0000000000000000  0.7463259669407858
  0.3259157272918208  0.3259157272918208  0.7463259669407858
 -0.0000000000000000  0.6740842727081793  0.7463259669407858
 -0.0000000000000000 -0.0000000000000000 -0.0000000000000000
  0.6666666666669983  0.3333333333330017  0.5000000000000000
  0.3333333333330017  0.6666666666669983  0.5000000000000000
 
  0.00000000E+00  0.00000000E+00  0.00000000E+00
  0.00000000E+00  0.00000000E+00  0.00000000E+00
  0.00000000E+00  0.00000000E+00  0.00000000E+00
  0.00000000E+00  0.00000000E+00  0.00000000E+00
  0.00000000E+00  0.00000000E+00  0.00000000E+00
  0.00000000E+00  0.00000000E+00  0.00000000E+00
  0.00000000E+00  0.00000000E+00  0.00000000E+00
  0.00000000E+00  0.00000000E+00  0.00000000E+00
  0.00000000E+00  0.00000000E+00  0.00000000E+00
