generated by phonopy
   1.0
     9.5662167404054017   -0.0000000000000034    0.0000000000000000
    -4.7831083702037063    8.2845867153007902    0.0000000000000000
     0.0000000000000000    0.0000000000000000    8.8077384826634777
Cr N
  48   24
Direct
  0.1629578636459104  0.0000000000000000  0.1268370165296072
  0.6629578636459104  0.0000000000000000  0.1268370165296072
  0.1629578636459104  0.5000000000000000  0.1268370165296072
  0.6629578636459104  0.5000000000000000  0.1268370165296072
  0.1629578636459104  0.0000000000000000  0.6268370165296071
  0.6629578636459104  0.0000000000000000  0.6268370165296071
  0.1629578636459104  0.5000000000000000  0.6268370165296071
  0.6629578636459104  0.5000000000000000  0.6268370165296071
  0.0000000000000000  0.1629578636459104  0.1268370165296072
  0.5000000000000000  0.1629578636459104  0.1268370165296072
  0.0000000000000000  0.6629578636459104  0.1268370165296072
  0.5000000000000000  0.6629578636459104  0.1268370165296072
  0.0000000000000000  0.1629578636459104  0.6268370165296071
  0.5000000000000000  0.1629578636459104  0.6268370165296071
  0.0000000000000000  0.6629578636459104  0.6268370165296071
  0.5000000000000000  0.6629578636459104  0.6268370165296071
  0.3370421363540896  0.3370421363540896  0.1268370165296072
  0.8370421363540896  0.3370421363540896  0.1268370165296072
  0.3370421363540896  0.8370421363540896  0.1268370165296072
  0.8370421363540896  0.8370421363540896  0.1268370165296072
  0.3370421363540896  0.3370421363540896  0.6268370165296071
  0.8370421363540896  0.3370421363540896  0.6268370165296071
  0.3370421363540896  0.8370421363540896  0.6268370165296071
  0.8370421363540896  0.8370421363540896  0.6268370165296071
  0.3370421363540896  0.0000000000000000  0.3731629834703929
  0.8370421363540896  0.0000000000000000  0.3731629834703929
  0.3370421363540896  0.5000000000000000  0.3731629834703929
  0.8370421363540896  0.5000000000000000  0.3731629834703929
  0.3370421363540896  0.0000000000000000  0.8731629834703929
  0.8370421363540896  0.0000000000000000  0.8731629834703929
  0.3370421363540896  0.5000000000000000  0.8731629834703929
  0.8370421363540896  0.5000000000000000  0.8731629834703929
  0.1629578636459104  0.1629578636459104  0.3731629834703929
  0.6629578636459104  0.1629578636459104  0.3731629834703929
  0.1629578636459104  0.6629578636459104  0.3731629834703929
  0.6629578636459104  0.6629578636459104  0.3731629834703929
  0.1629578636459104  0.1629578636459104  0.8731629834703929
  0.6629578636459104  0.1629578636459104  0.8731629834703929
  0.1629578636459104  0.6629578636459104  0.8731629834703929
  0.6629578636459104  0.6629578636459104  0.8731629834703929
  0.0000000000000000  0.3370421363540896  0.3731629834703929
  0.5000000000000000  0.3370421363540896  0.3731629834703929
  0.0000000000000000  0.8370421363540896  0.3731629834703929
  0.5000000000000000  0.8370421363540896  0.3731629834703929
  0.0000000000000000  0.3370421363540896  0.8731629834703929
  0.5000000000000000  0.3370421363540896  0.8731629834703929
  0.0000000000000000  0.8370421363540896  0.8731629834703929
  0.5000000000000000  0.8370421363540896  0.8731629834703929
  0.0000000000000000  0.0000000000000000  0.0000000000000000
  0.5000000000000000  0.0000000000000000  0.0000000000000000
  0.0000000000000000  0.5000000000000000  0.0000000000000000
  0.5000000000000000  0.5000000000000000  0.0000000000000000
  0.0000000000000000  0.0000000000000000  0.5000000000000000
  0.5000000000000000  0.0000000000000000  0.5000000000000000
  0.0000000000000000  0.5000000000000000  0.5000000000000000
  0.5000000000000000  0.5000000000000000  0.5000000000000000
  0.3333333333334991  0.1666666666665008  0.2500000000000000
  0.8333333333334991  0.1666666666665008  0.2500000000000000
  0.3333333333334991  0.6666666666665009  0.2500000000000000
  0.8333333333334991  0.6666666666665009  0.2500000000000000
  0.3333333333334991  0.1666666666665008  0.7500000000000000
  0.8333333333334991  0.1666666666665008  0.7500000000000000
  0.3333333333334991  0.6666666666665009  0.7500000000000000
  0.8333333333334991  0.6666666666665009  0.7500000000000000
  0.1666666666665008  0.3333333333334991  0.2500000000000000
  0.6666666666665009  0.3333333333334991  0.2500000000000000
  0.1666666666665008  0.8333333333334991  0.2500000000000000
  0.6666666666665009  0.8333333333334991  0.2500000000000000
  0.1666666666665008  0.3333333333334991  0.7500000000000000
  0.6666666666665009  0.3333333333334991  0.7500000000000000
  0.1666666666665008  0.8333333333334991  0.7500000000000000
  0.6666666666665009  0.8333333333334991  0.7500000000000000
