B N Be
1.0
  2.738088072993   1.580835886007   4.163489253000
 -2.738088072993   1.580835886007   4.163489253000
  0.000000000000  -3.161671772014   4.163489253000
B Be N
12 1 2
Direct
  0.330749320419   0.003556963547   0.003556963547
  0.003556963547   0.330749320419   0.003556963547
  0.676602033884   0.196993987937   0.196993987937
  0.196993987937   0.676602033884   0.196993987937
  0.803006012063   0.803006012063   0.323397966116
  0.003556963547   0.003556963547   0.330749320419
  0.996443036453   0.996443036453   0.669250679581
  0.196993987937   0.196993987937   0.676602033884
  0.803006012063   0.323397966116   0.803006012063
  0.323397966116   0.803006012063   0.803006012063
  0.996443036453   0.669250679581   0.996443036453
  0.669250679581   0.996443036453   0.996443036453
  0.500000000000   0.500000000000   0.500000000000
  0.376389426778   0.376389426778   0.376389426778
  0.623610573222   0.623610573222   0.623610573222
