Primitive Cell
  1.000000
    3.30212380836071   -1.91272847195968    0.00000000000000
    3.30212380836071    1.91272847195968    0.00000000000000
   -2.93573001154435    0.00000000000000    5.50182390050850
  C   Li
   3   4
DIRECT
   -0.0000000000000000    0.0000000000000000    0.0000000000000000     C1
    0.0340489178455127    0.0340489178455128    0.2295769635804128     C2
    0.9659510821544872    0.9659510821544873    0.7704230364195872     C3
    0.3619668868641006    0.3619668868641006    0.1609133144851102    Li1
    0.7878535371443551    0.7878535371443551    0.3868030594607302    Li2
    0.2121464628556449    0.2121464628556449    0.6131969405392699    Li3
    0.6380331131358994    0.6380331131358994    0.8390866855148897    Li4
