Primitive Cell
  1.000000
    3.61559916482980    2.08746715109627    3.52950592446591
   -3.61559916482980    2.08746715109627    3.52950592446591
    0.00000000000000   -4.17493430219254    3.52950592446591
  Be  V 
  17   2
DIRECT
    0.5000000000000000   -0.0000000000000000    0.0000000000000000    Be1
    0.6981101461315893    0.3018898538684107    0.0000000000000000    Be2
    0.0000000000000000    0.4999999999999998    0.0000000000000000    Be3
    0.3018898538684108    0.6981101461315892    0.0000000000000000    Be4
    0.1007922236889660    0.1007922236889659    0.1007922236889660    Be5
    0.6512421623779425    0.6512421623779426    0.1620670052206846    Be6
    0.6981101461315893   -0.0000000000000000    0.3018898538684108    Be7
   -0.0000000000000000    0.6981101461315893    0.3018898538684108    Be8
    0.8379329947793153    0.3487578376220574    0.3487578376220573    Be9
    0.3487578376220573    0.8379329947793156    0.3487578376220573   Be10
    0.0000000000000000    0.0000000000000001    0.5000000000000001   Be11
    0.6512421623779425    0.1620670052206845    0.6512421623779429   Be12
    0.1620670052206846    0.6512421623779425    0.6512421623779429   Be13
    0.3018898538684107   -0.0000000000000000    0.6981101461315893   Be14
   -0.0000000000000000    0.3018898538684107    0.6981101461315893   Be15
    0.3487578376220573    0.3487578376220573    0.8379329947793154   Be16
    0.8992077763110338    0.8992077763110339    0.8992077763110338   Be17
    0.3376764858112997    0.3376764858112997    0.3376764858112999     V1
    0.6623235141887001    0.6623235141887002    0.6623235141886999     V2
