Primitive Cell
  1.000000
    2.74196253165488    1.58307280575882    4.17038858211751
   -2.74196253165488    1.58307280575882    4.17038858211751
    0.00000000000000   -3.16614561151763    4.17038858211751
  B   Be  N 
  12   1   2
DIRECT
    0.3306774607130935    0.0034876584167412    0.0034876584167412     B1
    0.0034876584167412    0.3306774607130935    0.0034876584167412     B2
    0.6765412833506717    0.1970094378411976    0.1970094378411977     B3
    0.1970094378411976    0.6765412833506718    0.1970094378411977     B4
    0.8029905621588022    0.8029905621588022    0.3234587166493283     B5
    0.0034876584167412    0.0034876584167412    0.3306774607130935     B6
    0.9965123415832586    0.9965123415832587    0.6693225392869068     B7
    0.1970094378411976    0.1970094378411976    0.6765412833506718     B8
    0.8029905621588022    0.3234587166493283    0.8029905621588025     B9
    0.3234587166493281    0.8029905621588022    0.8029905621588025    B10
    0.9965123415832586    0.6693225392869065    0.9965123415832590    B11
    0.6693225392869065    0.9965123415832590    0.9965123415832590    B12
    0.4999999999999998    0.4999999999999998    0.5000000000000002    Be1
    0.3763916742029502    0.3763916742029502    0.3763916742029503     N1
    0.6236083257970497    0.6236083257970497    0.6236083257970496     N2
