BeB12N2 distorted along soft mode 1 (A=-
   1.00000000000000     
     2.7390465492593132    1.5740531717949118    4.1474516559520831
    -2.7388249595949419    1.5747374041370159    4.1470464115261647
     0.0007025910864068   -3.1400731100954604    4.1440096975050080
   B    Be   N 
    12     1     2
Direct
  0.3252725311582649 -0.0050750339233635  0.0153384197070009
 -0.0053701684284297  0.3254525754240414  0.0154533769005387
  0.6694222209659485  0.1933271806955325  0.2070278216524295
  0.1932481756622219  0.6697935432571155  0.2070431988020653
  0.8007144784735223  0.8009380364295053  0.3406441233801287
 -0.0009970324583746 -0.0007807466979150  0.3422560449609285
  0.9927525383254825  0.9929185875820576  0.6786955844553073
  0.1977283165672689  0.1979044670013248  0.6848704630486226
  0.7951540603500062  0.3188659269575471  0.8065336734738552
  0.3187383586646356  0.7952533321375557  0.8064489552586225
  0.9901203517134406  0.6651892075371650  0.0078340211624685
  0.6649147616897412  0.9903383084130949  0.0077697133474382
  0.5688574618669350  0.5660412342319207  0.3626295561167855
  0.3775494438886016  0.3778538592381643  0.3874379532332044
  0.6140696364916921  0.6140627066217266  0.6257587746641580
 
  0.00000000E+00  0.00000000E+00  0.00000000E+00
  0.00000000E+00  0.00000000E+00  0.00000000E+00
  0.00000000E+00  0.00000000E+00  0.00000000E+00
  0.00000000E+00  0.00000000E+00  0.00000000E+00
  0.00000000E+00  0.00000000E+00  0.00000000E+00
  0.00000000E+00  0.00000000E+00  0.00000000E+00
  0.00000000E+00  0.00000000E+00  0.00000000E+00
  0.00000000E+00  0.00000000E+00  0.00000000E+00
  0.00000000E+00  0.00000000E+00  0.00000000E+00
  0.00000000E+00  0.00000000E+00  0.00000000E+00
  0.00000000E+00  0.00000000E+00  0.00000000E+00
  0.00000000E+00  0.00000000E+00  0.00000000E+00
  0.00000000E+00  0.00000000E+00  0.00000000E+00
  0.00000000E+00  0.00000000E+00  0.00000000E+00
  0.00000000E+00  0.00000000E+00  0.00000000E+00
