Ti Be
1.0
  0.000000000000   5.206644419000   5.206644419000
  5.206644419000   0.000000000000   5.206644419000
  5.206644419000   5.206644419000   0.000000000000
Be Ti
23 6
Direct
  0.000000000000   0.000000000000   0.000000000000
  0.500000000000   0.000000000000   0.000000000000
  0.000000000000   0.500000000000   0.000000000000
  0.500000000000   0.500000000000   0.000000000000
  0.325226883234   0.325226883234   0.024319350297
  0.124008316593   0.124008316593   0.124008316593
  0.627975050220   0.124008316593   0.124008316593
  0.124008316593   0.627975050220   0.124008316593
  0.325226883234   0.024319350297   0.325226883234
  0.024319350297   0.325226883234   0.325226883234
  0.325226883234   0.325226883234   0.325226883234
  0.875991683407   0.875991683407   0.372024949780
  0.000000000000   0.000000000000   0.500000000000
  0.500000000000   0.000000000000   0.500000000000
  0.000000000000   0.500000000000   0.500000000000
  0.124008316593   0.124008316593   0.627975050220
  0.674773116766   0.674773116766   0.674773116766
  0.975680649703   0.674773116766   0.674773116766
  0.674773116766   0.975680649703   0.674773116766
  0.875991683407   0.372024949780   0.875991683407
  0.372024949780   0.875991683407   0.875991683407
  0.875991683407   0.875991683407   0.875991683407
  0.674773116766   0.674773116766   0.975680649703
  0.696134000677   0.303865999323   0.303865999323
  0.303865999323   0.696134000677   0.303865999323
  0.696134000677   0.696134000677   0.303865999323
  0.303865999323   0.303865999323   0.696134000677
  0.696134000677   0.303865999323   0.696134000677
  0.303865999323   0.696134000677   0.696134000677
