Primitive Cell
  1.000000
    3.71069655161582    0.00000000000000    0.00000000000000
    0.00000000000000    3.00673498117781    0.00000000000000
   -0.85668734238685    0.00000000000000    5.62813926938634
  B   Be  Li
   2   2   2
DIRECT
    0.8820565226804211    0.2500000000000000    0.4737870098679770     B1
    0.1179434773195789    0.7500000000000000    0.5262129901320229     B2
    0.3525694867936238    0.2500000000000000    0.3890205386979033    Be1
    0.6474305132063762    0.7500000000000000    0.6109794613020967    Be2
    0.7749232614997149    0.7500000000000000    0.1605802174985720    Li1
    0.2250767385002851    0.2500000000000000    0.8394197825014280    Li2
