V N Be
1.0
  1.459768430000  -4.785718323000   0.000000000000
  1.459768430000   4.785718323000   0.000000000000
  0.000000000000   0.000000000000   7.503627028000
Be N V
2 2 6
Direct
  0.743654992375   0.256345007625   0.250000000000
  0.256345007625   0.743654992375   0.750000000000
  0.000000000000   0.000000000000   0.000000000000
  0.000000000000   0.000000000000   0.500000000000
  0.362039694579   0.637960305421   0.051773430709
  0.059114427742   0.940885572258   0.250000000000
  0.362039694579   0.637960305421   0.448226569291
  0.637960305421   0.362039694579   0.551773430709
  0.940885572258   0.059114427742   0.750000000000
  0.637960305421   0.362039694579   0.948226569291
