generated by phonopy
   1.0
     8.9881898850011606    0.0000000000000000   -0.0023530366109682
     0.0000000000000000   11.4334332493825670    0.0000000000000000
    -0.0098598838835954    0.0000000000000000    9.8628616463334016
C N V
   8   24   64
Direct
  0.0000000000000000  0.3135074524673728  0.2500000000000000
  0.5000000000000000  0.3135074524673728  0.2500000000000000
  0.0000000000000000  0.8135074524673728  0.2500000000000000
  0.5000000000000000  0.8135074524673728  0.2500000000000000
  0.0000000000000000  0.3135074524673728  0.7500000000000000
  0.5000000000000000  0.3135074524673728  0.7500000000000000
  0.0000000000000000  0.8135074524673728  0.7500000000000000
  0.5000000000000000  0.8135074524673728  0.7500000000000000
  0.0000000000000000  0.1863784890482255  0.0000000000000000
  0.5000000000000000  0.1863784890482255  0.0000000000000000
  0.0000000000000000  0.6863784890482254  0.0000000000000000
  0.5000000000000000  0.6863784890482254  0.0000000000000000
  0.0000000000000000  0.1863784890482255  0.5000000000000000
  0.5000000000000000  0.1863784890482255  0.5000000000000000
  0.0000000000000000  0.6863784890482254  0.5000000000000000
  0.5000000000000000  0.6863784890482254  0.5000000000000000
  0.2500000000000000  0.4373166295085317  0.0000000000000000
  0.7500000000000000  0.4373166295085317  0.0000000000000000
  0.2500000000000000  0.9373166295085317  0.0000000000000000
  0.7500000000000000  0.9373166295085317  0.0000000000000000
  0.2500000000000000  0.4373166295085317  0.5000000000000000
  0.7500000000000000  0.4373166295085317  0.5000000000000000
  0.2500000000000000  0.9373166295085317  0.5000000000000000
  0.7500000000000000  0.9373166295085317  0.5000000000000000
  0.2500000000000000  0.0633129509304003  0.2500000000000000
  0.7500000000000000  0.0633129509304003  0.2500000000000000
  0.2500000000000000  0.5633129509304003  0.2500000000000000
  0.7500000000000000  0.5633129509304003  0.2500000000000000
  0.2500000000000000  0.0633129509304003  0.7500000000000000
  0.7500000000000000  0.0633129509304003  0.7500000000000000
  0.2500000000000000  0.5633129509304003  0.7500000000000000
  0.7500000000000000  0.5633129509304003  0.7500000000000000
  0.3712021745617179  0.3084177916822742  0.0841713354206723
  0.8712021745617180  0.3084177916822742  0.0841713354206723
  0.3712021745617179  0.8084177916822741  0.0841713354206723
  0.8712021745617180  0.8084177916822741  0.0841713354206723
  0.3712021745617179  0.3084177916822742  0.5841713354206723
  0.8712021745617180  0.3084177916822742  0.5841713354206723
  0.3712021745617179  0.8084177916822741  0.5841713354206723
  0.8712021745617180  0.8084177916822741  0.5841713354206723
  0.3786672305898942  0.0596031287973424  0.0857346704157459
  0.8786672305898942  0.0596031287973424  0.0857346704157459
  0.3786672305898942  0.5596031287973423  0.0857346704157459
  0.8786672305898942  0.5596031287973423  0.0857346704157459
  0.3786672305898942  0.0596031287973424  0.5857346704157459
  0.8786672305898942  0.0596031287973424  0.5857346704157459
  0.3786672305898942  0.5596031287973423  0.5857346704157459
  0.8786672305898942  0.5596031287973423  0.5857346704157459
  0.1286316534156048  0.1901285497468865  0.1636098573480519
  0.6286316534156048  0.1901285497468865  0.1636098573480519
  0.1286316534156048  0.6901285497468865  0.1636098573480519
  0.6286316534156048  0.6901285497468865  0.1636098573480519
  0.1286316534156048  0.1901285497468865  0.6636098573480520
  0.6286316534156048  0.1901285497468865  0.6636098573480520
  0.1286316534156048  0.6901285497468865  0.6636098573480520
  0.6286316534156048  0.6901285497468865  0.6636098573480520
  0.1223517321539974  0.4415926975932292  0.1639189378637163
  0.6223517321539974  0.4415926975932292  0.1639189378637163
  0.1223517321539974  0.9415926975932292  0.1639189378637163
  0.6223517321539974  0.9415926975932292  0.1639189378637163
  0.1223517321539974  0.4415926975932292  0.6639189378637163
  0.6223517321539974  0.4415926975932292  0.6639189378637163
  0.1223517321539974  0.9415926975932292  0.6639189378637163
  0.6223517321539974  0.9415926975932292  0.6639189378637163
  0.3776482678460025  0.4415926975932292  0.3360810621362837
  0.8776482678460025  0.4415926975932292  0.3360810621362837
  0.3776482678460025  0.9415926975932292  0.3360810621362837
  0.8776482678460025  0.9415926975932292  0.3360810621362837
  0.3776482678460025  0.4415926975932292  0.8360810621362837
  0.8776482678460025  0.4415926975932292  0.8360810621362837
  0.3776482678460025  0.9415926975932292  0.8360810621362837
  0.8776482678460025  0.9415926975932292  0.8360810621362837
  0.3713683465843953  0.1901285497468865  0.3363901426519481
  0.8713683465843953  0.1901285497468865  0.3363901426519481
  0.3713683465843953  0.6901285497468865  0.3363901426519481
  0.8713683465843953  0.6901285497468865  0.3363901426519481
  0.3713683465843953  0.1901285497468865  0.8363901426519481
  0.8713683465843953  0.1901285497468865  0.8363901426519481
  0.3713683465843953  0.6901285497468865  0.8363901426519481
  0.8713683465843953  0.6901285497468865  0.8363901426519481
  0.1213327694101058  0.0596031287973424  0.4142653295842542
  0.6213327694101058  0.0596031287973424  0.4142653295842542
  0.1213327694101058  0.5596031287973423  0.4142653295842542
  0.6213327694101058  0.5596031287973423  0.4142653295842542
  0.1213327694101058  0.0596031287973424  0.9142653295842542
  0.6213327694101058  0.0596031287973424  0.9142653295842542
  0.1213327694101058  0.5596031287973423  0.9142653295842542
  0.6213327694101058  0.5596031287973423  0.9142653295842542
  0.1287978254382821  0.3084177916822742  0.4158286645793277
  0.6287978254382820  0.3084177916822742  0.4158286645793277
  0.1287978254382821  0.8084177916822741  0.4158286645793277
  0.6287978254382820  0.8084177916822741  0.4158286645793277
  0.1287978254382821  0.3084177916822742  0.9158286645793277
  0.6287978254382820  0.3084177916822742  0.9158286645793277
  0.1287978254382821  0.8084177916822741  0.9158286645793277
  0.6287978254382820  0.8084177916822741  0.9158286645793277
