generated by phonopy
   1.0
    -2.7274427663958867    2.7274427663958867    7.8079139541901421
     2.7274427663958867   -2.7274427663958867    7.8079139541901421
     2.7274427663958867    2.7274427663958867   -7.8079139541901421
Be Mn
   8   16
Direct
  0.0000000000000000  0.0000000000000000  0.0000000000000000
  0.5000000000000000  0.0000000000000000  0.0000000000000000
  0.0000000000000000  0.5000000000000000  0.0000000000000000
  0.5000000000000000  0.5000000000000000  0.0000000000000000
  0.0000000000000000  0.0000000000000000  0.5000000000000000
  0.5000000000000000  0.0000000000000000  0.5000000000000000
  0.0000000000000000  0.5000000000000000  0.5000000000000000
  0.5000000000000000  0.5000000000000000  0.5000000000000000
  0.1646039464382917  0.1646039464382917  0.0000000000000000
  0.6646039464382918  0.1646039464382917  0.0000000000000000
  0.1646039464382917  0.6646039464382918  0.0000000000000000
  0.6646039464382918  0.6646039464382918  0.0000000000000000
  0.1646039464382917  0.1646039464382917  0.5000000000000000
  0.6646039464382918  0.1646039464382917  0.5000000000000000
  0.1646039464382917  0.6646039464382918  0.5000000000000000
  0.6646039464382918  0.6646039464382918  0.5000000000000000
  0.3353960535617082  0.3353960535617082  0.0000000000000000
  0.8353960535617082  0.3353960535617082  0.0000000000000000
  0.3353960535617082  0.8353960535617082  0.0000000000000000
  0.8353960535617082  0.8353960535617082  0.0000000000000000
  0.3353960535617082  0.3353960535617082  0.5000000000000000
  0.8353960535617082  0.3353960535617082  0.5000000000000000
  0.3353960535617082  0.8353960535617082  0.5000000000000000
  0.8353960535617082  0.8353960535617082  0.5000000000000000
