Ti C
1.0
  2.660622837000  -4.595921774000   0.000000000000
  2.660622837000   4.595921774000   0.000000000000
 -1.784511979000   0.000000000000   5.009744167000
C Ti
5 6
Direct
  0.666619992235   0.333380007765   0.000000000000
  0.333380007765   0.666619992235   0.000000000000
  0.833588673978   0.166411326022   0.500000000000
  0.500000000000   0.500000000000   0.500000000000
  0.166411326022   0.833588673978   0.500000000000
  0.435582026614   0.085511903642   0.254266476997
  0.085511903642   0.435582026614   0.254266476997
  0.737448860770   0.737448860770   0.262807831321
  0.262551139230   0.262551139230   0.737192168679
  0.914488096358   0.564417973386   0.745733523003
  0.564417973386   0.914488096358   0.745733523003
