C Cr                                    
   1.00000000000000     
     0.0000000000000000    5.2614288896319659    5.2614288896319659
     5.2614288896319659   -0.0000000000000000    5.2614288896319659
     5.2614288896319659    5.2614288896319659    0.0000000000000000
   C    Cr
     6    23
Direct
  0.7234009328136316  0.2765990671863683  0.2765990671863683
  0.2765990671863683  0.7234009328136316  0.2765990671863683
  0.7234009328136316  0.7234009328136316  0.2765990671863683
  0.2765990671863683  0.2765990671863683  0.7234009328136316
  0.7234009328136316  0.2765990671863683  0.7234009328136316
  0.2765990671863683  0.7234009328136316  0.7234009328136316
 -0.0000000000000000  0.0000000000000000  0.0000000000000000
  0.3398145856312849 -0.0000000000000000  0.0000000000000000
  0.6601854143687150  0.0000000000000000 -0.0000000000000000
  0.0000000000000000  0.3398145856312849 -0.0000000000000000
  0.6601854143687150  0.3398145856312849  0.0000000000000000
 -0.0000000000000000  0.6601854143687150  0.0000000000000000
  0.3398145856312849  0.6601854143687150 -0.0000000000000000
  0.6190945781679559  0.6190945781679559  0.1427162654971412
  0.2500000000000000  0.2500000000000000  0.2500000000000000
  0.0000000000000000 -0.0000000000000000  0.3398145856312849
  0.6601854143687150  0.0000000000000000  0.3398145856312849
  0.0000000000000000  0.6601854143687150  0.3398145856312849
  0.8572837345028588  0.3809054218320441  0.3809054218320441
  0.3809054218320441  0.3809054218320441  0.3809054218320441
  0.3809054218320441  0.8572837345028588  0.3809054218320441
  0.1427162654971412  0.6190945781679559  0.6190945781679559
  0.6190945781679559  0.1427162654971412  0.6190945781679559
  0.6190945781679559  0.6190945781679559  0.6190945781679559
 -0.0000000000000000  0.0000000000000000  0.6601854143687150
  0.3398145856312849  0.0000000000000000  0.6601854143687150
  0.0000000000000000  0.3398145856312849  0.6601854143687150
  0.7500000000000000  0.7500000000000000  0.7500000000000000
  0.3809054218320441  0.3809054218320441  0.8572837345028588
 
  0.00000000E+00  0.00000000E+00  0.00000000E+00
  0.00000000E+00  0.00000000E+00  0.00000000E+00
  0.00000000E+00  0.00000000E+00  0.00000000E+00
  0.00000000E+00  0.00000000E+00  0.00000000E+00
  0.00000000E+00  0.00000000E+00  0.00000000E+00
  0.00000000E+00  0.00000000E+00  0.00000000E+00
  0.00000000E+00  0.00000000E+00  0.00000000E+00
  0.00000000E+00  0.00000000E+00  0.00000000E+00
  0.00000000E+00  0.00000000E+00  0.00000000E+00
  0.00000000E+00  0.00000000E+00  0.00000000E+00
  0.00000000E+00  0.00000000E+00  0.00000000E+00
  0.00000000E+00  0.00000000E+00  0.00000000E+00
  0.00000000E+00  0.00000000E+00  0.00000000E+00
  0.00000000E+00  0.00000000E+00  0.00000000E+00
  0.00000000E+00  0.00000000E+00  0.00000000E+00
  0.00000000E+00  0.00000000E+00  0.00000000E+00
  0.00000000E+00  0.00000000E+00  0.00000000E+00
  0.00000000E+00  0.00000000E+00  0.00000000E+00
  0.00000000E+00  0.00000000E+00  0.00000000E+00
  0.00000000E+00  0.00000000E+00  0.00000000E+00
  0.00000000E+00  0.00000000E+00  0.00000000E+00
  0.00000000E+00  0.00000000E+00  0.00000000E+00
  0.00000000E+00  0.00000000E+00  0.00000000E+00
  0.00000000E+00  0.00000000E+00  0.00000000E+00
  0.00000000E+00  0.00000000E+00  0.00000000E+00
  0.00000000E+00  0.00000000E+00  0.00000000E+00
  0.00000000E+00  0.00000000E+00  0.00000000E+00
  0.00000000E+00  0.00000000E+00  0.00000000E+00
  0.00000000E+00  0.00000000E+00  0.00000000E+00
