generated by phonopy
   1.0
     0.0000000000000000   10.5228577792639317   10.5228577792639317
    10.5228577792639317    0.0000000000000000   10.5228577792639317
    10.5228577792639317   10.5228577792639317    0.0000000000000000
C Cr
  48  184
Direct
  0.3617004664068158  0.1382995335931841  0.1382995335931841
  0.8617004664068157  0.1382995335931841  0.1382995335931841
  0.3617004664068158  0.6382995335931841  0.1382995335931841
  0.8617004664068157  0.6382995335931841  0.1382995335931841
  0.3617004664068158  0.1382995335931841  0.6382995335931841
  0.8617004664068157  0.1382995335931841  0.6382995335931841
  0.3617004664068158  0.6382995335931841  0.6382995335931841
  0.8617004664068157  0.6382995335931841  0.6382995335931841
  0.1382995335931841  0.3617004664068158  0.1382995335931841
  0.6382995335931841  0.3617004664068158  0.1382995335931841
  0.1382995335931841  0.8617004664068157  0.1382995335931841
  0.6382995335931841  0.8617004664068157  0.1382995335931841
  0.1382995335931841  0.3617004664068158  0.6382995335931841
  0.6382995335931841  0.3617004664068158  0.6382995335931841
  0.1382995335931841  0.8617004664068157  0.6382995335931841
  0.6382995335931841  0.8617004664068157  0.6382995335931841
  0.3617004664068158  0.3617004664068158  0.1382995335931841
  0.8617004664068157  0.3617004664068158  0.1382995335931841
  0.3617004664068158  0.8617004664068157  0.1382995335931841
  0.8617004664068157  0.8617004664068157  0.1382995335931841
  0.3617004664068158  0.3617004664068158  0.6382995335931841
  0.8617004664068157  0.3617004664068158  0.6382995335931841
  0.3617004664068158  0.8617004664068157  0.6382995335931841
  0.8617004664068157  0.8617004664068157  0.6382995335931841
  0.1382995335931841  0.1382995335931841  0.3617004664068158
  0.6382995335931841  0.1382995335931841  0.3617004664068158
  0.1382995335931841  0.6382995335931841  0.3617004664068158
  0.6382995335931841  0.6382995335931841  0.3617004664068158
  0.1382995335931841  0.1382995335931841  0.8617004664068157
  0.6382995335931841  0.1382995335931841  0.8617004664068157
  0.1382995335931841  0.6382995335931841  0.8617004664068157
  0.6382995335931841  0.6382995335931841  0.8617004664068157
  0.3617004664068158  0.1382995335931841  0.3617004664068158
  0.8617004664068157  0.1382995335931841  0.3617004664068158
  0.3617004664068158  0.6382995335931841  0.3617004664068158
  0.8617004664068157  0.6382995335931841  0.3617004664068158
  0.3617004664068158  0.1382995335931841  0.8617004664068157
  0.8617004664068157  0.1382995335931841  0.8617004664068157
  0.3617004664068158  0.6382995335931841  0.8617004664068157
  0.8617004664068157  0.6382995335931841  0.8617004664068157
  0.1382995335931841  0.3617004664068158  0.3617004664068158
  0.6382995335931841  0.3617004664068158  0.3617004664068158
  0.1382995335931841  0.8617004664068157  0.3617004664068158
  0.6382995335931841  0.8617004664068157  0.3617004664068158
  0.1382995335931841  0.3617004664068158  0.8617004664068157
  0.6382995335931841  0.3617004664068158  0.8617004664068157
  0.1382995335931841  0.8617004664068157  0.8617004664068157
  0.6382995335931841  0.8617004664068157  0.8617004664068157
  0.0000000000000000  0.0000000000000000  0.0000000000000000
  0.5000000000000000  0.0000000000000000  0.0000000000000000
  0.0000000000000000  0.5000000000000000  0.0000000000000000
  0.5000000000000000  0.5000000000000000  0.0000000000000000
  0.0000000000000000  0.0000000000000000  0.5000000000000000
  0.5000000000000000  0.0000000000000000  0.5000000000000000
  0.0000000000000000  0.5000000000000000  0.5000000000000000
  0.5000000000000000  0.5000000000000000  0.5000000000000000
  0.1699072928156425  0.0000000000000000  0.0000000000000000
  0.6699072928156424  0.0000000000000000  0.0000000000000000
  0.1699072928156425  0.5000000000000000  0.0000000000000000
  0.6699072928156424  0.5000000000000000  0.0000000000000000
  0.1699072928156425  0.0000000000000000  0.5000000000000000
  0.6699072928156424  0.0000000000000000  0.5000000000000000
  0.1699072928156425  0.5000000000000000  0.5000000000000000
  0.6699072928156424  0.5000000000000000  0.5000000000000000
  0.3300927071843575  0.0000000000000000  0.0000000000000000
  0.8300927071843576  0.0000000000000000  0.0000000000000000
  0.3300927071843575  0.5000000000000000  0.0000000000000000
  0.8300927071843576  0.5000000000000000  0.0000000000000000
  0.3300927071843575  0.0000000000000000  0.5000000000000000
  0.8300927071843576  0.0000000000000000  0.5000000000000000
  0.3300927071843575  0.5000000000000000  0.5000000000000000
  0.8300927071843576  0.5000000000000000  0.5000000000000000
  0.0000000000000000  0.1699072928156425  0.0000000000000000
  0.5000000000000000  0.1699072928156425  0.0000000000000000
  0.0000000000000000  0.6699072928156424  0.0000000000000000
  0.5000000000000000  0.6699072928156424  0.0000000000000000
  0.0000000000000000  0.1699072928156425  0.5000000000000000
  0.5000000000000000  0.1699072928156425  0.5000000000000000
  0.0000000000000000  0.6699072928156424  0.5000000000000000
  0.5000000000000000  0.6699072928156424  0.5000000000000000
  0.3300927071843575  0.1699072928156425  0.0000000000000000
  0.8300927071843576  0.1699072928156425  0.0000000000000000
  0.3300927071843575  0.6699072928156424  0.0000000000000000
  0.8300927071843576  0.6699072928156424  0.0000000000000000
  0.3300927071843575  0.1699072928156425  0.5000000000000000
  0.8300927071843576  0.1699072928156425  0.5000000000000000
  0.3300927071843575  0.6699072928156424  0.5000000000000000
  0.8300927071843576  0.6699072928156424  0.5000000000000000
  0.0000000000000000  0.3300927071843575  0.0000000000000000
  0.5000000000000000  0.3300927071843575  0.0000000000000000
  0.0000000000000000  0.8300927071843576  0.0000000000000000
  0.5000000000000000  0.8300927071843576  0.0000000000000000
  0.0000000000000000  0.3300927071843575  0.5000000000000000
  0.5000000000000000  0.3300927071843575  0.5000000000000000
  0.0000000000000000  0.8300927071843576  0.5000000000000000
  0.5000000000000000  0.8300927071843576  0.5000000000000000
  0.1699072928156425  0.3300927071843575  0.0000000000000000
  0.6699072928156424  0.3300927071843575  0.0000000000000000
  0.1699072928156425  0.8300927071843576  0.0000000000000000
  0.6699072928156424  0.8300927071843576  0.0000000000000000
  0.1699072928156425  0.3300927071843575  0.5000000000000000
  0.6699072928156424  0.3300927071843575  0.5000000000000000
  0.1699072928156425  0.8300927071843576  0.5000000000000000
  0.6699072928156424  0.8300927071843576  0.5000000000000000
  0.3095472890839779  0.3095472890839779  0.0713581327485706
  0.8095472890839779  0.3095472890839779  0.0713581327485706
  0.3095472890839779  0.8095472890839779  0.0713581327485706
  0.8095472890839779  0.8095472890839779  0.0713581327485706
  0.3095472890839779  0.3095472890839779  0.5713581327485706
  0.8095472890839779  0.3095472890839779  0.5713581327485706
  0.3095472890839779  0.8095472890839779  0.5713581327485706
  0.8095472890839779  0.8095472890839779  0.5713581327485706
  0.1250000000000000  0.1250000000000000  0.1250000000000000
  0.6250000000000000  0.1250000000000000  0.1250000000000000
  0.1250000000000000  0.6250000000000000  0.1250000000000000
  0.6250000000000000  0.6250000000000000  0.1250000000000000
  0.1250000000000000  0.1250000000000000  0.6250000000000000
  0.6250000000000000  0.1250000000000000  0.6250000000000000
  0.1250000000000000  0.6250000000000000  0.6250000000000000
  0.6250000000000000  0.6250000000000000  0.6250000000000000
  0.0000000000000000  0.0000000000000000  0.1699072928156425
  0.5000000000000000  0.0000000000000000  0.1699072928156425
  0.0000000000000000  0.5000000000000000  0.1699072928156425
  0.5000000000000000  0.5000000000000000  0.1699072928156425
  0.0000000000000000  0.0000000000000000  0.6699072928156424
  0.5000000000000000  0.0000000000000000  0.6699072928156424
  0.0000000000000000  0.5000000000000000  0.6699072928156424
  0.5000000000000000  0.5000000000000000  0.6699072928156424
  0.3300927071843575  0.0000000000000000  0.1699072928156425
  0.8300927071843576  0.0000000000000000  0.1699072928156425
  0.3300927071843575  0.5000000000000000  0.1699072928156425
  0.8300927071843576  0.5000000000000000  0.1699072928156425
  0.3300927071843575  0.0000000000000000  0.6699072928156424
  0.8300927071843576  0.0000000000000000  0.6699072928156424
  0.3300927071843575  0.5000000000000000  0.6699072928156424
  0.8300927071843576  0.5000000000000000  0.6699072928156424
  0.0000000000000000  0.3300927071843575  0.1699072928156425
  0.5000000000000000  0.3300927071843575  0.1699072928156425
  0.0000000000000000  0.8300927071843576  0.1699072928156425
  0.5000000000000000  0.8300927071843576  0.1699072928156425
  0.0000000000000000  0.3300927071843575  0.6699072928156424
  0.5000000000000000  0.3300927071843575  0.6699072928156424
  0.0000000000000000  0.8300927071843576  0.6699072928156424
  0.5000000000000000  0.8300927071843576  0.6699072928156424
  0.4286418672514294  0.1904527109160221  0.1904527109160221
  0.9286418672514294  0.1904527109160221  0.1904527109160221
  0.4286418672514294  0.6904527109160221  0.1904527109160221
  0.9286418672514294  0.6904527109160221  0.1904527109160221
  0.4286418672514294  0.1904527109160221  0.6904527109160221
  0.9286418672514294  0.1904527109160221  0.6904527109160221
  0.4286418672514294  0.6904527109160221  0.6904527109160221
  0.9286418672514294  0.6904527109160221  0.6904527109160221
  0.1904527109160221  0.1904527109160221  0.1904527109160221
  0.6904527109160221  0.1904527109160221  0.1904527109160221
  0.1904527109160221  0.6904527109160221  0.1904527109160221
  0.6904527109160221  0.6904527109160221  0.1904527109160221
  0.1904527109160221  0.1904527109160221  0.6904527109160221
  0.6904527109160221  0.1904527109160221  0.6904527109160221
  0.1904527109160221  0.6904527109160221  0.6904527109160221
  0.6904527109160221  0.6904527109160221  0.6904527109160221
  0.1904527109160221  0.4286418672514294  0.1904527109160221
  0.6904527109160221  0.4286418672514294  0.1904527109160221
  0.1904527109160221  0.9286418672514294  0.1904527109160221
  0.6904527109160221  0.9286418672514294  0.1904527109160221
  0.1904527109160221  0.4286418672514294  0.6904527109160221
  0.6904527109160221  0.4286418672514294  0.6904527109160221
  0.1904527109160221  0.9286418672514294  0.6904527109160221
  0.6904527109160221  0.9286418672514294  0.6904527109160221
  0.0713581327485706  0.3095472890839779  0.3095472890839779
  0.5713581327485706  0.3095472890839779  0.3095472890839779
  0.0713581327485706  0.8095472890839779  0.3095472890839779
  0.5713581327485706  0.8095472890839779  0.3095472890839779
  0.0713581327485706  0.3095472890839779  0.8095472890839779
  0.5713581327485706  0.3095472890839779  0.8095472890839779
  0.0713581327485706  0.8095472890839779  0.8095472890839779
  0.5713581327485706  0.8095472890839779  0.8095472890839779
  0.3095472890839779  0.0713581327485706  0.3095472890839779
  0.8095472890839779  0.0713581327485706  0.3095472890839779
  0.3095472890839779  0.5713581327485706  0.3095472890839779
  0.8095472890839779  0.5713581327485706  0.3095472890839779
  0.3095472890839779  0.0713581327485706  0.8095472890839779
  0.8095472890839779  0.0713581327485706  0.8095472890839779
  0.3095472890839779  0.5713581327485706  0.8095472890839779
  0.8095472890839779  0.5713581327485706  0.8095472890839779
  0.3095472890839779  0.3095472890839779  0.3095472890839779
  0.8095472890839779  0.3095472890839779  0.3095472890839779
  0.3095472890839779  0.8095472890839779  0.3095472890839779
  0.8095472890839779  0.8095472890839779  0.3095472890839779
  0.3095472890839779  0.3095472890839779  0.8095472890839779
  0.8095472890839779  0.3095472890839779  0.8095472890839779
  0.3095472890839779  0.8095472890839779  0.8095472890839779
  0.8095472890839779  0.8095472890839779  0.8095472890839779
  0.0000000000000000  0.0000000000000000  0.3300927071843575
  0.5000000000000000  0.0000000000000000  0.3300927071843575
  0.0000000000000000  0.5000000000000000  0.3300927071843575
  0.5000000000000000  0.5000000000000000  0.3300927071843575
  0.0000000000000000  0.0000000000000000  0.8300927071843576
  0.5000000000000000  0.0000000000000000  0.8300927071843576
  0.0000000000000000  0.5000000000000000  0.8300927071843576
  0.5000000000000000  0.5000000000000000  0.8300927071843576
  0.1699072928156425  0.0000000000000000  0.3300927071843575
  0.6699072928156424  0.0000000000000000  0.3300927071843575
  0.1699072928156425  0.5000000000000000  0.3300927071843575
  0.6699072928156424  0.5000000000000000  0.3300927071843575
  0.1699072928156425  0.0000000000000000  0.8300927071843576
  0.6699072928156424  0.0000000000000000  0.8300927071843576
  0.1699072928156425  0.5000000000000000  0.8300927071843576
  0.6699072928156424  0.5000000000000000  0.8300927071843576
  0.0000000000000000  0.1699072928156425  0.3300927071843575
  0.5000000000000000  0.1699072928156425  0.3300927071843575
  0.0000000000000000  0.6699072928156424  0.3300927071843575
  0.5000000000000000  0.6699072928156424  0.3300927071843575
  0.0000000000000000  0.1699072928156425  0.8300927071843576
  0.5000000000000000  0.1699072928156425  0.8300927071843576
  0.0000000000000000  0.6699072928156424  0.8300927071843576
  0.5000000000000000  0.6699072928156424  0.8300927071843576
  0.3750000000000000  0.3750000000000000  0.3750000000000000
  0.8750000000000000  0.3750000000000000  0.3750000000000000
  0.3750000000000000  0.8750000000000000  0.3750000000000000
  0.8750000000000000  0.8750000000000000  0.3750000000000000
  0.3750000000000000  0.3750000000000000  0.8750000000000000
  0.8750000000000000  0.3750000000000000  0.8750000000000000
  0.3750000000000000  0.8750000000000000  0.8750000000000000
  0.8750000000000000  0.8750000000000000  0.8750000000000000
  0.1904527109160221  0.1904527109160221  0.4286418672514294
  0.6904527109160221  0.1904527109160221  0.4286418672514294
  0.1904527109160221  0.6904527109160221  0.4286418672514294
  0.6904527109160221  0.6904527109160221  0.4286418672514294
  0.1904527109160221  0.1904527109160221  0.9286418672514294
  0.6904527109160221  0.1904527109160221  0.9286418672514294
  0.1904527109160221  0.6904527109160221  0.9286418672514294
  0.6904527109160221  0.6904527109160221  0.9286418672514294
