C Li
1.0
  3.295413691000  -1.909225877000   0.000000000000
  3.295413691000   1.909225877000   0.000000000000
 -2.931651469000   0.000000000000   5.492620178000
C Li
3 4
Direct
  0.000000000000   0.000000000000   0.000000000000
  0.034009539232   0.034009539232   0.229662703613
  0.965990460768   0.965990460768   0.770337296387
  0.361966925722   0.361966925722   0.160981457182
  0.787884283410   0.787884283410   0.386849978906
  0.212115716590   0.212115716590   0.613150021094
  0.638033074278   0.638033074278   0.839018542818
