N Cr                                    
   1.00000000000000     
     2.7323454496724855   -0.0000000000000000    0.0000000000000000
    -1.3661727248362427    2.3662805713317834    0.0000000000000000
     0.0000000000000000    0.0000000000000000    7.3801556689581655
   Cr   N 
     2     4
Direct
  0.6666666666669983  0.3333333333330017  0.2500000000000000
  0.3333333333330017  0.6666666666669983  0.7500000000000000
  0.0000000000000000  0.0000000000000000  0.0905473232484556
 -0.0000000000000000 -0.0000000000000000  0.4094526767515444
  0.0000000000000000  0.0000000000000000  0.5905473232484556
 -0.0000000000000000 -0.0000000000000000  0.9094526767515444
 
  0.00000000E+00  0.00000000E+00  0.00000000E+00
  0.00000000E+00  0.00000000E+00  0.00000000E+00
  0.00000000E+00  0.00000000E+00  0.00000000E+00
  0.00000000E+00  0.00000000E+00  0.00000000E+00
  0.00000000E+00  0.00000000E+00  0.00000000E+00
  0.00000000E+00  0.00000000E+00  0.00000000E+00
