generated by phonopy
   1.0
     5.4646908993449710    0.0000000000000000    0.0000000000000000
    -2.7323454496724855    4.7325611426635668    0.0000000000000000
     0.0000000000000000    0.0000000000000000   14.7603113379163311
Cr N
  16   32
Direct
  0.3333333333334991  0.1666666666665008  0.1250000000000000
  0.8333333333334991  0.1666666666665008  0.1250000000000000
  0.3333333333334991  0.6666666666665009  0.1250000000000000
  0.8333333333334991  0.6666666666665009  0.1250000000000000
  0.3333333333334991  0.1666666666665008  0.6250000000000000
  0.8333333333334991  0.1666666666665008  0.6250000000000000
  0.3333333333334991  0.6666666666665009  0.6250000000000000
  0.8333333333334991  0.6666666666665009  0.6250000000000000
  0.1666666666665008  0.3333333333334991  0.3750000000000000
  0.6666666666665009  0.3333333333334991  0.3750000000000000
  0.1666666666665008  0.8333333333334991  0.3750000000000000
  0.6666666666665009  0.8333333333334991  0.3750000000000000
  0.1666666666665008  0.3333333333334991  0.8750000000000000
  0.6666666666665009  0.3333333333334991  0.8750000000000000
  0.1666666666665008  0.8333333333334991  0.8750000000000000
  0.6666666666665009  0.8333333333334991  0.8750000000000000
  0.0000000000000000  0.0000000000000000  0.0452736616242278
  0.5000000000000000  0.0000000000000000  0.0452736616242278
  0.0000000000000000  0.5000000000000000  0.0452736616242278
  0.5000000000000000  0.5000000000000000  0.0452736616242278
  0.0000000000000000  0.0000000000000000  0.5452736616242277
  0.5000000000000000  0.0000000000000000  0.5452736616242277
  0.0000000000000000  0.5000000000000000  0.5452736616242277
  0.5000000000000000  0.5000000000000000  0.5452736616242277
  0.0000000000000000  0.0000000000000000  0.2047263383757722
  0.5000000000000000  0.0000000000000000  0.2047263383757722
  0.0000000000000000  0.5000000000000000  0.2047263383757722
  0.5000000000000000  0.5000000000000000  0.2047263383757722
  0.0000000000000000  0.0000000000000000  0.7047263383757723
  0.5000000000000000  0.0000000000000000  0.7047263383757723
  0.0000000000000000  0.5000000000000000  0.7047263383757723
  0.5000000000000000  0.5000000000000000  0.7047263383757723
  0.0000000000000000  0.0000000000000000  0.2952736616242278
  0.5000000000000000  0.0000000000000000  0.2952736616242278
  0.0000000000000000  0.5000000000000000  0.2952736616242278
  0.5000000000000000  0.5000000000000000  0.2952736616242278
  0.0000000000000000  0.0000000000000000  0.7952736616242277
  0.5000000000000000  0.0000000000000000  0.7952736616242277
  0.0000000000000000  0.5000000000000000  0.7952736616242277
  0.5000000000000000  0.5000000000000000  0.7952736616242277
  0.0000000000000000  0.0000000000000000  0.4547263383757722
  0.5000000000000000  0.0000000000000000  0.4547263383757722
  0.0000000000000000  0.5000000000000000  0.4547263383757722
  0.5000000000000000  0.5000000000000000  0.4547263383757722
  0.0000000000000000  0.0000000000000000  0.9547263383757723
  0.5000000000000000  0.0000000000000000  0.9547263383757723
  0.0000000000000000  0.5000000000000000  0.9547263383757723
  0.5000000000000000  0.5000000000000000  0.9547263383757723
