Primitive Cell
  1.000000
    1.81081746444969    1.04547595055330    5.82332406768987
   -1.81081746444969    1.04547595055330    5.82332406768987
    0.00000000000000   -2.09095190110661    5.82332406768987
  Be  Li  N 
   1   4   2
DIRECT
   -0.0000000000000000    0.0000000000000000    0.0000000000000000    Be1
    0.2039726766605592    0.2039726766605592    0.2039726766605592    Li1
    0.4069662866721644    0.4069662866721644    0.4069662866721644    Li2
    0.5930337133278356    0.5930337133278355    0.5930337133278356    Li3
    0.7960273233394407    0.7960273233394407    0.7960273233394407    Li4
    0.0878340439650731    0.0878340439650730    0.0878340439650731     N1
    0.9121659560349267    0.9121659560349268    0.9121659560349268     N2
