Primitive Cell
  1.000000
    7.66049272035650    0.00000000000000    0.00000000000000
   -3.83024636017825    6.63418130133449    0.00000000000000
    0.00000000000000    0.00000000000000    2.92502907253243
  N   Si
   8   6
DIRECT
    0.0307648548023981    0.3300062823703142    0.2517618743718052     N1
    0.6699937176296857    0.7007585724320838    0.2517618743718052     N2
    0.2992414275679162    0.9692351451976019    0.2517618743718052     N3
    0.6666666666666666    0.3333333333333333    0.2517292864263740     N4
    0.7007585724320838    0.0307648548023981    0.7517618743718052     N5
    0.3300062823703142    0.2992414275679162    0.7517618743718052     N6
    0.9692351451976019    0.6699937176296857    0.7517618743718052     N7
    0.3333333333333333    0.6666666666666666    0.7517292864263740     N8
    0.7688568433649916    0.1749832960737968    0.2517628696407398    Si1
    0.4061264527088052    0.2311431566350084    0.2517628696407398    Si2
    0.8250167039262032    0.5938735472911948    0.2517628696407398    Si3
    0.1749832960737968    0.4061264527088052    0.7517628696407398    Si4
    0.5938735472911948    0.7688568433649916    0.7517628696407398    Si5
    0.2311431566350084    0.8250167039262032    0.7517628696407398    Si6
