generated by phonopy
   1.0
     5.3284307470442478   -9.2044587278467418   -0.0002983935061348
     5.3284307470442478    9.2044587278467418   -0.0002983935061348
    -3.5744049227066177    0.0000000000000000   10.0333258329990151
C Ti
  40   48
Direct
  0.3333180766904762  0.1666819233095239  0.0000000000000000
  0.8333180766904762  0.1666819233095239  0.0000000000000000
  0.3333180766904762  0.6666819233095238  0.0000000000000000
  0.8333180766904762  0.6666819233095238  0.0000000000000000
  0.3333180766904762  0.1666819233095239  0.5000000000000000
  0.8333180766904762  0.1666819233095239  0.5000000000000000
  0.3333180766904762  0.6666819233095238  0.5000000000000000
  0.8333180766904762  0.6666819233095238  0.5000000000000000
  0.1666819233095239  0.3333180766904762  0.0000000000000000
  0.6666819233095238  0.3333180766904762  0.0000000000000000
  0.1666819233095239  0.8333180766904762  0.0000000000000000
  0.6666819233095238  0.8333180766904762  0.0000000000000000
  0.1666819233095239  0.3333180766904762  0.5000000000000000
  0.6666819233095238  0.3333180766904762  0.5000000000000000
  0.1666819233095239  0.8333180766904762  0.5000000000000000
  0.6666819233095238  0.8333180766904762  0.5000000000000000
  0.4168519799618932  0.0831480200381069  0.2500000000000000
  0.9168519799618932  0.0831480200381069  0.2500000000000000
  0.4168519799618932  0.5831480200381070  0.2500000000000000
  0.9168519799618932  0.5831480200381070  0.2500000000000000
  0.4168519799618932  0.0831480200381069  0.7500000000000000
  0.9168519799618932  0.0831480200381069  0.7500000000000000
  0.4168519799618932  0.5831480200381070  0.7500000000000000
  0.9168519799618932  0.5831480200381070  0.7500000000000000
  0.2500000000000000  0.2500000000000000  0.2500000000000000
  0.7500000000000000  0.2500000000000000  0.2500000000000000
  0.2500000000000000  0.7500000000000000  0.2500000000000000
  0.7500000000000000  0.7500000000000000  0.2500000000000000
  0.2500000000000000  0.2500000000000000  0.7500000000000000
  0.7500000000000000  0.2500000000000000  0.7500000000000000
  0.2500000000000000  0.7500000000000000  0.7500000000000000
  0.7500000000000000  0.7500000000000000  0.7500000000000000
  0.0831480200381069  0.4168519799618932  0.2500000000000000
  0.5831480200381070  0.4168519799618932  0.2500000000000000
  0.0831480200381069  0.9168519799618932  0.2500000000000000
  0.5831480200381070  0.9168519799618932  0.2500000000000000
  0.0831480200381069  0.4168519799618932  0.7500000000000000
  0.5831480200381070  0.4168519799618932  0.7500000000000000
  0.0831480200381069  0.9168519799618932  0.7500000000000000
  0.5831480200381070  0.9168519799618932  0.7500000000000000
  0.2177864199313723  0.0428566913459412  0.1271608103540617
  0.7177864199313723  0.0428566913459412  0.1271608103540617
  0.2177864199313723  0.5428566913459412  0.1271608103540617
  0.7177864199313723  0.5428566913459412  0.1271608103540617
  0.2177864199313723  0.0428566913459412  0.6271608103540618
  0.7177864199313723  0.0428566913459412  0.6271608103540618
  0.2177864199313723  0.5428566913459412  0.6271608103540618
  0.7177864199313723  0.5428566913459412  0.6271608103540618
  0.0428566913459412  0.2177864199313723  0.1271608103540617
  0.5428566913459412  0.2177864199313723  0.1271608103540617
  0.0428566913459412  0.7177864199313723  0.1271608103540617
  0.5428566913459412  0.7177864199313723  0.1271608103540617
  0.0428566913459412  0.2177864199313723  0.6271608103540618
  0.5428566913459412  0.2177864199313723  0.6271608103540618
  0.0428566913459412  0.7177864199313723  0.6271608103540618
  0.5428566913459412  0.7177864199313723  0.6271608103540618
  0.3688161800603406  0.3688161800603406  0.1314282445847584
  0.8688161800603406  0.3688161800603406  0.1314282445847584
  0.3688161800603406  0.8688161800603406  0.1314282445847584
  0.8688161800603406  0.8688161800603406  0.1314282445847584
  0.3688161800603406  0.3688161800603406  0.6314282445847584
  0.8688161800603406  0.3688161800603406  0.6314282445847584
  0.3688161800603406  0.8688161800603406  0.6314282445847584
  0.8688161800603406  0.8688161800603406  0.6314282445847584
  0.1311838199396594  0.1311838199396594  0.3685717554152416
  0.6311838199396594  0.1311838199396594  0.3685717554152416
  0.1311838199396594  0.6311838199396594  0.3685717554152416
  0.6311838199396594  0.6311838199396594  0.3685717554152416
  0.1311838199396594  0.1311838199396594  0.8685717554152416
  0.6311838199396594  0.1311838199396594  0.8685717554152416
  0.1311838199396594  0.6311838199396594  0.8685717554152416
  0.6311838199396594  0.6311838199396594  0.8685717554152416
  0.4571433086540588  0.2822135800686277  0.3728391896459383
  0.9571433086540588  0.2822135800686277  0.3728391896459383
  0.4571433086540588  0.7822135800686277  0.3728391896459383
  0.9571433086540588  0.7822135800686277  0.3728391896459383
  0.4571433086540588  0.2822135800686277  0.8728391896459382
  0.9571433086540588  0.2822135800686277  0.8728391896459382
  0.4571433086540588  0.7822135800686277  0.8728391896459382
  0.9571433086540588  0.7822135800686277  0.8728391896459382
  0.2822135800686277  0.4571433086540588  0.3728391896459383
  0.7822135800686277  0.4571433086540588  0.3728391896459383
  0.2822135800686277  0.9571433086540588  0.3728391896459383
  0.7822135800686277  0.9571433086540588  0.3728391896459383
  0.2822135800686277  0.4571433086540588  0.8728391896459382
  0.7822135800686277  0.4571433086540588  0.8728391896459382
  0.2822135800686277  0.9571433086540588  0.8728391896459382
  0.7822135800686277  0.9571433086540588  0.8728391896459382
