Mn Be
1.0
  4.133886404500   0.000000000000   0.000000000000
 -2.066943202250   3.580050642656   0.000000000000
  0.000000000000   0.000000000000   6.738168000000
Be Mn
8 4
Direct
  0.000000000000   0.000000000000   0.000000000000
  0.340115628237   0.170057814118   0.250000000000
  0.829942185882   0.170057814118   0.250000000000
  0.829942185882   0.659884371763   0.250000000000
  0.000000000000   0.000000000000   0.500000000000
  0.170057814118   0.340115628237   0.750000000000
  0.170057814118   0.829942185882   0.750000000000
  0.659884371763   0.829942185882   0.750000000000
  0.333333333333   0.666666666667   0.061254038190
  0.333333333333   0.666666666667   0.438745961810
  0.666666666667   0.333333333333   0.561254038190
  0.666666666667   0.333333333333   0.938745961810
