B N C                                   
   1.00000000000000     
     2.7863780294192946    1.6087161053493089    4.0883512642662829
    -2.7863780294192946    1.6087161053493089    4.0883512642662829
     0.0000000000000000   -3.2174322106986177    4.0883512642662829
   B    C    N 
    13     1     1
Direct
  0.3314801193125186  0.0051349845596968  0.0051349845596968
  0.0051349845596968  0.3314801193125186  0.0051349845596968
  0.6862221043722142  0.1942032522167321  0.1942032522167321
  0.1942032522167321  0.6862221043722142  0.1942032522167321
  0.8040395793938100  0.8040395793938100  0.3163729899295898
  0.0051349845596968  0.0051349845596968  0.3314801193125186
  0.4978520166653285  0.4978520166653285  0.4978520166653285
  0.9955337977363050  0.9955337977363050  0.6714607691342294
  0.1942032522167321  0.1942032522167321  0.6862221043722142
  0.8040395793938100  0.3163729899295898  0.8040395793938100
  0.3163729899295898  0.8040395793938100  0.8040395793938100
  0.9955337977363050  0.6714607691342294  0.9955337977363050
  0.6714607691342294  0.9955337977363050  0.9955337977363050
  0.6149073994427244  0.6149073994427244  0.6149073994427244
  0.3838808004302941  0.3838808004302941  0.3838808004302941
 
  0.00000000E+00  0.00000000E+00  0.00000000E+00
  0.00000000E+00  0.00000000E+00  0.00000000E+00
  0.00000000E+00  0.00000000E+00  0.00000000E+00
  0.00000000E+00  0.00000000E+00  0.00000000E+00
  0.00000000E+00  0.00000000E+00  0.00000000E+00
  0.00000000E+00  0.00000000E+00  0.00000000E+00
  0.00000000E+00  0.00000000E+00  0.00000000E+00
  0.00000000E+00  0.00000000E+00  0.00000000E+00
  0.00000000E+00  0.00000000E+00  0.00000000E+00
  0.00000000E+00  0.00000000E+00  0.00000000E+00
  0.00000000E+00  0.00000000E+00  0.00000000E+00
  0.00000000E+00  0.00000000E+00  0.00000000E+00
  0.00000000E+00  0.00000000E+00  0.00000000E+00
  0.00000000E+00  0.00000000E+00  0.00000000E+00
  0.00000000E+00  0.00000000E+00  0.00000000E+00
