Cr N
1.0
  4.769344635447   0.000000000000   0.000000000000
 -2.384672317724   4.130373613701   0.000000000000
  0.000000000000   0.000000000000   4.396109001974
Cr N
6 3
Direct
  0.326090281422   0.000000000000   0.253152616977
  0.000000000000   0.326090281422   0.253152616977
  0.673909718578   0.673909718578   0.253152616977
  0.673909718578   0.000000000000   0.746847383023
  0.326090281422   0.326090281422   0.746847383023
  0.000000000000   0.673909718578   0.746847383023
  0.000000000000   0.000000000000   0.000000000000
  0.666666666667   0.333333333333   0.500000000000
  0.333333333333   0.666666666667   0.500000000000
