Be B                                    
   1.00000000000000     
     1.4848507157403237   -3.0241181412049296    0.0000000000000000
     1.4848507157403237    3.0241181412049296   -0.0000000000000000
     0.0000000000000000   -0.0000000000000000    5.1331541329213000
   B    Be
     4     2
Direct
  0.7279506088895186  0.2720493911104814  0.0893115919763135
  0.7279506088895186  0.2720493911104814  0.4106884080236865
  0.2720493911104814  0.7279506088895186  0.5893115919763136
  0.2720493911104814  0.7279506088895186  0.9106884080236864
  0.4112913482918074  0.5887086517081925  0.2500000000000000
  0.5887086517081925  0.4112913482918074  0.7500000000000000
 
  0.00000000E+00  0.00000000E+00  0.00000000E+00
  0.00000000E+00  0.00000000E+00  0.00000000E+00
  0.00000000E+00  0.00000000E+00  0.00000000E+00
  0.00000000E+00  0.00000000E+00  0.00000000E+00
  0.00000000E+00  0.00000000E+00  0.00000000E+00
  0.00000000E+00  0.00000000E+00  0.00000000E+00
