generated by phonopy
   1.0
     2.9697014314806474   -6.0482362824098592    0.0000000000000000
     2.9697014314806474    6.0482362824098592    0.0000000000000000
     0.0000000000000000    0.0000000000000000   10.2663082658425999
B Be
  32   16
Direct
  0.3639753044447593  0.1360246955552407  0.0446557959881567
  0.8639753044447593  0.1360246955552407  0.0446557959881567
  0.3639753044447593  0.6360246955552407  0.0446557959881567
  0.8639753044447593  0.6360246955552407  0.0446557959881567
  0.3639753044447593  0.1360246955552407  0.5446557959881567
  0.8639753044447593  0.1360246955552407  0.5446557959881567
  0.3639753044447593  0.6360246955552407  0.5446557959881567
  0.8639753044447593  0.6360246955552407  0.5446557959881567
  0.3639753044447593  0.1360246955552407  0.2053442040118433
  0.8639753044447593  0.1360246955552407  0.2053442040118433
  0.3639753044447593  0.6360246955552407  0.2053442040118433
  0.8639753044447593  0.6360246955552407  0.2053442040118433
  0.3639753044447593  0.1360246955552407  0.7053442040118433
  0.8639753044447593  0.1360246955552407  0.7053442040118433
  0.3639753044447593  0.6360246955552407  0.7053442040118433
  0.8639753044447593  0.6360246955552407  0.7053442040118433
  0.1360246955552407  0.3639753044447593  0.2946557959881568
  0.6360246955552407  0.3639753044447593  0.2946557959881568
  0.1360246955552407  0.8639753044447593  0.2946557959881568
  0.6360246955552407  0.8639753044447593  0.2946557959881568
  0.1360246955552407  0.3639753044447593  0.7946557959881568
  0.6360246955552407  0.3639753044447593  0.7946557959881568
  0.1360246955552407  0.8639753044447593  0.7946557959881568
  0.6360246955552407  0.8639753044447593  0.7946557959881568
  0.1360246955552407  0.3639753044447593  0.4553442040118432
  0.6360246955552407  0.3639753044447593  0.4553442040118432
  0.1360246955552407  0.8639753044447593  0.4553442040118432
  0.6360246955552407  0.8639753044447593  0.4553442040118432
  0.1360246955552407  0.3639753044447593  0.9553442040118432
  0.6360246955552407  0.3639753044447593  0.9553442040118432
  0.1360246955552407  0.8639753044447593  0.9553442040118432
  0.6360246955552407  0.8639753044447593  0.9553442040118432
  0.2056456741459037  0.2943543258540963  0.1250000000000000
  0.7056456741459037  0.2943543258540963  0.1250000000000000
  0.2056456741459037  0.7943543258540963  0.1250000000000000
  0.7056456741459037  0.7943543258540963  0.1250000000000000
  0.2056456741459037  0.2943543258540963  0.6250000000000000
  0.7056456741459037  0.2943543258540963  0.6250000000000000
  0.2056456741459037  0.7943543258540963  0.6250000000000000
  0.7056456741459037  0.7943543258540963  0.6250000000000000
  0.2943543258540963  0.2056456741459037  0.3750000000000000
  0.7943543258540963  0.2056456741459037  0.3750000000000000
  0.2943543258540963  0.7056456741459037  0.3750000000000000
  0.7943543258540963  0.7056456741459037  0.3750000000000000
  0.2943543258540963  0.2056456741459037  0.8750000000000000
  0.7943543258540963  0.2056456741459037  0.8750000000000000
  0.2943543258540963  0.7056456741459037  0.8750000000000000
  0.7943543258540963  0.7056456741459037  0.8750000000000000
