Primitive Cell
  1.000000
    0.00000000000000    5.20756092263866    5.20756092263866
    5.20756092263866    0.00000000000000    5.20756092263866
    5.20756092263866    5.20756092263866    0.00000000000000
  Be  Ti
  23   6
DIRECT
    0.0000000000000000    0.0000000000000000    0.0000000000000000    Be1
    0.5000000000000000    0.0000000000000000    0.0000000000000000    Be2
    0.0000000000000000    0.5000000000000000    0.0000000000000000    Be3
    0.5000000000000000    0.5000000000000000    0.0000000000000000    Be4
    0.3252032515265937    0.3252032515265937    0.0243902454202189    Be5
    0.1239695458777459    0.1239695458777460    0.1239695458777460    Be6
    0.6280913623667621    0.1239695458777460    0.1239695458777460    Be7
    0.1239695458777460    0.6280913623667621    0.1239695458777459    Be8
    0.3252032515265937    0.0243902454202189    0.3252032515265937    Be9
    0.0243902454202189    0.3252032515265937    0.3252032515265937   Be10
    0.3252032515265937    0.3252032515265937    0.3252032515265937   Be11
    0.8760304541222539    0.8760304541222541    0.3719086376332378   Be12
    0.0000000000000000    0.0000000000000000    0.5000000000000000   Be13
    0.5000000000000000    0.0000000000000000    0.5000000000000000   Be14
    0.0000000000000000    0.5000000000000000    0.5000000000000000   Be15
    0.1239695458777460    0.1239695458777459    0.6280913623667621   Be16
    0.6747967484734063    0.6747967484734063    0.6747967484734063   Be17
    0.9756097545797811    0.6747967484734063    0.6747967484734063   Be18
    0.6747967484734063    0.9756097545797811    0.6747967484734063   Be19
    0.8760304541222540    0.3719086376332380    0.8760304541222541   Be20
    0.3719086376332380    0.8760304541222540    0.8760304541222541   Be21
    0.8760304541222541    0.8760304541222541    0.8760304541222540   Be22
    0.6747967484734063    0.6747967484734063    0.9756097545797811   Be23
    0.6961062808268337    0.3038937191731664    0.3038937191731664    Ti1
    0.3038937191731664    0.6961062808268337    0.3038937191731664    Ti2
    0.6961062808268337    0.6961062808268337    0.3038937191731664    Ti3
    0.3038937191731664    0.3038937191731664    0.6961062808268337    Ti4
    0.6961062808268336    0.3038937191731664    0.6961062808268336    Ti5
    0.3038937191731664    0.6961062808268336    0.6961062808268336    Ti6
