Primitive Cell
  1.000000
    5.24942488606670    0.00000000000000    0.00000000000000
    0.00000000000000    5.24942488606670    0.00000000000000
    0.00000000000000    0.00000000000000    2.83097202880722
  B   Be  Mn
   4   2   4
DIRECT
    0.3801817965005487    0.1198182034994512    0.0000000000000000     B1
    0.8801817965005487    0.3801817965005487    0.0000000000000000     B2
    0.1198182034994512    0.6198182034994513    0.0000000000000000     B3
    0.6198182034994513    0.8801817965005487    0.0000000000000000     B4
    0.0000000000000000    0.0000000000000000    0.0000000000000000    Be1
    0.5000000000000000    0.5000000000000000    0.0000000000000000    Be2
    0.6743860015767564    0.1743860015767563    0.5000000000000000    Mn1
    0.1743860015767563    0.3256139984232435    0.5000000000000000    Mn2
    0.8256139984232436    0.6743860015767564    0.5000000000000000    Mn3
    0.3256139984232435    0.8256139984232436    0.5000000000000000    Mn4
