B Li
1.0
 -2.915962496000   5.093879745000   4.150597915000
  2.915962496000  -5.093879745000   4.150597915000
  2.915962496000   5.093879745000  -4.150597915000
B Li
30 2
Direct
  0.755885215960   0.654708884843   0.101176331117
  0.617292701100   0.826521586619   0.110848103564
  0.047327359586   0.899085724222   0.148241635365
  0.617340969507   0.452099521753   0.165241447754
  0.382258372304   0.711767655740   0.165587103428
  0.953819447687   0.288232344260   0.170490716564
  0.382707298900   0.493555402464   0.209228885519
  0.002679107044   0.752679107044   0.250000000000
  0.784326516945   0.173478413381   0.290771114481
  0.617741627696   0.783328731123   0.329509283436
  0.046180552313   0.216671268877   0.334412896572
  0.786858073999   0.452099521753   0.334758552246
  0.250844088857   0.899085724222   0.351758364635
  0.215673483055   0.506444597536   0.389151896436
  0.053532553726   0.654708884843   0.398823668883
  0.946467446274   0.345291115157   0.601176331117
  0.784326516945   0.493555402464   0.610848103564
  0.749155911143   0.100914275778   0.648241635365
  0.213141926001   0.547900478247   0.665241447754
  0.953819447687   0.783328731123   0.665587103428
  0.382258372304   0.216671268877   0.670490716564
  0.215673483055   0.826521586619   0.709228885519
  0.997320892956   0.247320892956   0.750000000000
  0.617292701100   0.506444597536   0.790771114481
  0.046180552313   0.711767655740   0.829509283436
  0.617741627696   0.288232344260   0.834412896572
  0.382659030493   0.547900478247   0.834758552246
  0.952672640414   0.100914275778   0.851758364635
  0.382707298900   0.173478413381   0.889151896436
  0.244114784040   0.345291115157   0.898823668883
  0.421205303287   0.171205303287   0.250000000000
  0.578794696713   0.828794696713   0.750000000000
