Be V                                    
   1.00000000000000     
     3.6155991648298045    2.0874671510959262    3.5295059244659126
    -3.6155991648298045    2.0874671510959262    3.5295059244659126
     0.0000000000000000   -4.1749343021928542    3.5295059244659130
   Be   V 
    17     2
Direct
  0.5000000000000000  0.0000000000000000 -0.0000000000000000
  0.6981101461315893  0.3018898538684107 -0.0000000000000000
 -0.0000000000000000  0.5000000000000000 -0.0000000000000000
  0.3018898538684107  0.6981101461315893 -0.0000000000000000
  0.1007922236889661  0.1007922236889661  0.1007922236889661
  0.6512421623779426  0.6512421623779426  0.1620670052206847
  0.6981101461315893 -0.0000000000000000  0.3018898538684107
 -0.0000000000000000  0.6981101461315893  0.3018898538684107
  0.8379329947793154  0.3487578376220574  0.3487578376220574
  0.3487578376220574  0.8379329947793154  0.3487578376220574
 -0.0000000000000000  0.0000000000000000  0.5000000000000000
  0.6512421623779426  0.1620670052206847  0.6512421623779426
  0.1620670052206847  0.6512421623779426  0.6512421623779426
  0.3018898538684107  0.0000000000000000  0.6981101461315893
  0.0000000000000000  0.3018898538684107  0.6981101461315893
  0.3487578376220574  0.3487578376220574  0.8379329947793154
  0.8992077763110339  0.8992077763110339  0.8992077763110339
  0.3376764858112999  0.3376764858112999  0.3376764858112999
  0.6623235141886999  0.6623235141886999  0.6623235141886999
 
  0.00000000E+00  0.00000000E+00  0.00000000E+00
  0.00000000E+00  0.00000000E+00  0.00000000E+00
  0.00000000E+00  0.00000000E+00  0.00000000E+00
  0.00000000E+00  0.00000000E+00  0.00000000E+00
  0.00000000E+00  0.00000000E+00  0.00000000E+00
  0.00000000E+00  0.00000000E+00  0.00000000E+00
  0.00000000E+00  0.00000000E+00  0.00000000E+00
  0.00000000E+00  0.00000000E+00  0.00000000E+00
  0.00000000E+00  0.00000000E+00  0.00000000E+00
  0.00000000E+00  0.00000000E+00  0.00000000E+00
  0.00000000E+00  0.00000000E+00  0.00000000E+00
  0.00000000E+00  0.00000000E+00  0.00000000E+00
  0.00000000E+00  0.00000000E+00  0.00000000E+00
  0.00000000E+00  0.00000000E+00  0.00000000E+00
  0.00000000E+00  0.00000000E+00  0.00000000E+00
  0.00000000E+00  0.00000000E+00  0.00000000E+00
  0.00000000E+00  0.00000000E+00  0.00000000E+00
  0.00000000E+00  0.00000000E+00  0.00000000E+00
  0.00000000E+00  0.00000000E+00  0.00000000E+00
