generated by phonopy
   1.0
     7.2311983296596090    4.1749343021918524    7.0590118489318252
    -7.2311983296596090    4.1749343021918524    7.0590118489318252
     0.0000000000000000   -8.3498686043857084    7.0590118489318261
Be V
 136   16
Direct
  0.2500000000000000  0.0000000000000000  0.0000000000000000
  0.7500000000000000  0.0000000000000000  0.0000000000000000
  0.2500000000000000  0.5000000000000000  0.0000000000000000
  0.7500000000000000  0.5000000000000000  0.0000000000000000
  0.2500000000000000  0.0000000000000000  0.5000000000000000
  0.7500000000000000  0.0000000000000000  0.5000000000000000
  0.2500000000000000  0.5000000000000000  0.5000000000000000
  0.7500000000000000  0.5000000000000000  0.5000000000000000
  0.3490550730657946  0.1509449269342054  0.0000000000000000
  0.8490550730657946  0.1509449269342054  0.0000000000000000
  0.3490550730657946  0.6509449269342054  0.0000000000000000
  0.8490550730657946  0.6509449269342054  0.0000000000000000
  0.3490550730657946  0.1509449269342054  0.5000000000000000
  0.8490550730657946  0.1509449269342054  0.5000000000000000
  0.3490550730657946  0.6509449269342054  0.5000000000000000
  0.8490550730657946  0.6509449269342054  0.5000000000000000
  0.0000000000000000  0.2500000000000000  0.0000000000000000
  0.5000000000000000  0.2500000000000000  0.0000000000000000
  0.0000000000000000  0.7500000000000000  0.0000000000000000
  0.5000000000000000  0.7500000000000000  0.0000000000000000
  0.0000000000000000  0.2500000000000000  0.5000000000000000
  0.5000000000000000  0.2500000000000000  0.5000000000000000
  0.0000000000000000  0.7500000000000000  0.5000000000000000
  0.5000000000000000  0.7500000000000000  0.5000000000000000
  0.1509449269342054  0.3490550730657946  0.0000000000000000
  0.6509449269342054  0.3490550730657946  0.0000000000000000
  0.1509449269342054  0.8490550730657946  0.0000000000000000
  0.6509449269342054  0.8490550730657946  0.0000000000000000
  0.1509449269342054  0.3490550730657946  0.5000000000000000
  0.6509449269342054  0.3490550730657946  0.5000000000000000
  0.1509449269342054  0.8490550730657946  0.5000000000000000
  0.6509449269342054  0.8490550730657946  0.5000000000000000
  0.0503961118444831  0.0503961118444831  0.0503961118444831
  0.5503961118444830  0.0503961118444831  0.0503961118444831
  0.0503961118444831  0.5503961118444830  0.0503961118444831
  0.5503961118444830  0.5503961118444830  0.0503961118444831
  0.0503961118444831  0.0503961118444831  0.5503961118444830
  0.5503961118444830  0.0503961118444831  0.5503961118444830
  0.0503961118444831  0.5503961118444830  0.5503961118444830
  0.5503961118444830  0.5503961118444830  0.5503961118444830
  0.3256210811889713  0.3256210811889713  0.0810335026103424
  0.8256210811889713  0.3256210811889713  0.0810335026103424
  0.3256210811889713  0.8256210811889713  0.0810335026103424
  0.8256210811889713  0.8256210811889713  0.0810335026103424
  0.3256210811889713  0.3256210811889713  0.5810335026103424
  0.8256210811889713  0.3256210811889713  0.5810335026103424
  0.3256210811889713  0.8256210811889713  0.5810335026103424
  0.8256210811889713  0.8256210811889713  0.5810335026103424
  0.3490550730657946  0.0000000000000000  0.1509449269342054
  0.8490550730657946  0.0000000000000000  0.1509449269342054
  0.3490550730657946  0.5000000000000000  0.1509449269342054
  0.8490550730657946  0.5000000000000000  0.1509449269342054
  0.3490550730657946  0.0000000000000000  0.6509449269342054
  0.8490550730657946  0.0000000000000000  0.6509449269342054
  0.3490550730657946  0.5000000000000000  0.6509449269342054
  0.8490550730657946  0.5000000000000000  0.6509449269342054
  0.0000000000000000  0.3490550730657946  0.1509449269342054
  0.5000000000000000  0.3490550730657946  0.1509449269342054
  0.0000000000000000  0.8490550730657946  0.1509449269342054
  0.5000000000000000  0.8490550730657946  0.1509449269342054
  0.0000000000000000  0.3490550730657946  0.6509449269342054
  0.5000000000000000  0.3490550730657946  0.6509449269342054
  0.0000000000000000  0.8490550730657946  0.6509449269342054
  0.5000000000000000  0.8490550730657946  0.6509449269342054
  0.4189664973896577  0.1743789188110287  0.1743789188110287
  0.9189664973896576  0.1743789188110287  0.1743789188110287
  0.4189664973896577  0.6743789188110287  0.1743789188110287
  0.9189664973896576  0.6743789188110287  0.1743789188110287
  0.4189664973896577  0.1743789188110287  0.6743789188110287
  0.9189664973896576  0.1743789188110287  0.6743789188110287
  0.4189664973896577  0.6743789188110287  0.6743789188110287
  0.9189664973896576  0.6743789188110287  0.6743789188110287
  0.1743789188110287  0.4189664973896577  0.1743789188110287
  0.6743789188110287  0.4189664973896577  0.1743789188110287
  0.1743789188110287  0.9189664973896576  0.1743789188110287
  0.6743789188110287  0.9189664973896576  0.1743789188110287
  0.1743789188110287  0.4189664973896577  0.6743789188110287
  0.6743789188110287  0.4189664973896577  0.6743789188110287
  0.1743789188110287  0.9189664973896576  0.6743789188110287
  0.6743789188110287  0.9189664973896576  0.6743789188110287
  0.0000000000000000  0.0000000000000000  0.2500000000000000
  0.5000000000000000  0.0000000000000000  0.2500000000000000
  0.0000000000000000  0.5000000000000000  0.2500000000000000
  0.5000000000000000  0.5000000000000000  0.2500000000000000
  0.0000000000000000  0.0000000000000000  0.7500000000000000
  0.5000000000000000  0.0000000000000000  0.7500000000000000
  0.0000000000000000  0.5000000000000000  0.7500000000000000
  0.5000000000000000  0.5000000000000000  0.7500000000000000
  0.3256210811889713  0.0810335026103424  0.3256210811889713
  0.8256210811889713  0.0810335026103424  0.3256210811889713
  0.3256210811889713  0.5810335026103424  0.3256210811889713
  0.8256210811889713  0.5810335026103424  0.3256210811889713
  0.3256210811889713  0.0810335026103424  0.8256210811889713
  0.8256210811889713  0.0810335026103424  0.8256210811889713
  0.3256210811889713  0.5810335026103424  0.8256210811889713
  0.8256210811889713  0.5810335026103424  0.8256210811889713
  0.0810335026103424  0.3256210811889713  0.3256210811889713
  0.5810335026103424  0.3256210811889713  0.3256210811889713
  0.0810335026103424  0.8256210811889713  0.3256210811889713
  0.5810335026103424  0.8256210811889713  0.3256210811889713
  0.0810335026103424  0.3256210811889713  0.8256210811889713
  0.5810335026103424  0.3256210811889713  0.8256210811889713
  0.0810335026103424  0.8256210811889713  0.8256210811889713
  0.5810335026103424  0.8256210811889713  0.8256210811889713
  0.1509449269342054  0.0000000000000000  0.3490550730657946
  0.6509449269342054  0.0000000000000000  0.3490550730657946
  0.1509449269342054  0.5000000000000000  0.3490550730657946
  0.6509449269342054  0.5000000000000000  0.3490550730657946
  0.1509449269342054  0.0000000000000000  0.8490550730657946
  0.6509449269342054  0.0000000000000000  0.8490550730657946
  0.1509449269342054  0.5000000000000000  0.8490550730657946
  0.6509449269342054  0.5000000000000000  0.8490550730657946
  0.0000000000000000  0.1509449269342054  0.3490550730657946
  0.5000000000000000  0.1509449269342054  0.3490550730657946
  0.0000000000000000  0.6509449269342054  0.3490550730657946
  0.5000000000000000  0.6509449269342054  0.3490550730657946
  0.0000000000000000  0.1509449269342054  0.8490550730657946
  0.5000000000000000  0.1509449269342054  0.8490550730657946
  0.0000000000000000  0.6509449269342054  0.8490550730657946
  0.5000000000000000  0.6509449269342054  0.8490550730657946
  0.1743789188110287  0.1743789188110287  0.4189664973896577
  0.6743789188110287  0.1743789188110287  0.4189664973896577
  0.1743789188110287  0.6743789188110287  0.4189664973896577
  0.6743789188110287  0.6743789188110287  0.4189664973896577
  0.1743789188110287  0.1743789188110287  0.9189664973896576
  0.6743789188110287  0.1743789188110287  0.9189664973896576
  0.1743789188110287  0.6743789188110287  0.9189664973896576
  0.6743789188110287  0.6743789188110287  0.9189664973896576
  0.4496038881555169  0.4496038881555169  0.4496038881555169
  0.9496038881555169  0.4496038881555169  0.4496038881555169
  0.4496038881555169  0.9496038881555169  0.4496038881555169
  0.9496038881555169  0.9496038881555169  0.4496038881555169
  0.4496038881555169  0.4496038881555169  0.9496038881555169
  0.9496038881555169  0.4496038881555169  0.9496038881555169
  0.4496038881555169  0.9496038881555169  0.9496038881555169
  0.9496038881555169  0.9496038881555169  0.9496038881555169
  0.1688382429056499  0.1688382429056499  0.1688382429056499
  0.6688382429056500  0.1688382429056499  0.1688382429056499
  0.1688382429056499  0.6688382429056500  0.1688382429056499
  0.6688382429056500  0.6688382429056500  0.1688382429056499
  0.1688382429056499  0.1688382429056499  0.6688382429056500
  0.6688382429056500  0.1688382429056499  0.6688382429056500
  0.1688382429056499  0.6688382429056500  0.6688382429056500
  0.6688382429056500  0.6688382429056500  0.6688382429056500
  0.3311617570943500  0.3311617570943500  0.3311617570943500
  0.8311617570943499  0.3311617570943500  0.3311617570943500
  0.3311617570943500  0.8311617570943499  0.3311617570943500
  0.8311617570943499  0.8311617570943499  0.3311617570943500
  0.3311617570943500  0.3311617570943500  0.8311617570943499
  0.8311617570943499  0.3311617570943500  0.8311617570943499
  0.3311617570943500  0.8311617570943499  0.8311617570943499
  0.8311617570943499  0.8311617570943499  0.8311617570943499
