Ti N C                                  
   1.00000000000000     
     2.6593889531947457   -4.5747893116399654   -0.0002963091410840
     2.6593889531947457    4.5747893116399654   -0.0002963091410840
    -1.7784583659553761    0.0000000000000000    4.9959526313944451
   C    N    Ti
     4     1     6
Direct
  0.8338891052021110  0.1661108947978888  0.0000000000000000
  0.1661108947978888  0.8338891052021110  0.0000000000000000
  0.6669449811593677  0.3330550188406321  0.5000000000000000
  0.3330550188406321  0.6669449811593677  0.5000000000000000
  0.5000000000000000  0.5000000000000000 -0.0000000000000000
  0.2657245215487333  0.2657245215487333  0.2344554120858008
  0.9143174167388070  0.5640901941104621  0.2465819675351638
  0.5640901941104621  0.9143174167388070  0.2465819675351638
  0.4359098058895378  0.0856825832611929  0.7534180324648361
  0.0856825832611929  0.4359098058895378  0.7534180324648361
  0.7342754784512667  0.7342754784512667  0.7655445879141992
 
  0.00000000E+00  0.00000000E+00  0.00000000E+00
  0.00000000E+00  0.00000000E+00  0.00000000E+00
  0.00000000E+00  0.00000000E+00  0.00000000E+00
  0.00000000E+00  0.00000000E+00  0.00000000E+00
  0.00000000E+00  0.00000000E+00  0.00000000E+00
  0.00000000E+00  0.00000000E+00  0.00000000E+00
  0.00000000E+00  0.00000000E+00  0.00000000E+00
  0.00000000E+00  0.00000000E+00  0.00000000E+00
  0.00000000E+00  0.00000000E+00  0.00000000E+00
  0.00000000E+00  0.00000000E+00  0.00000000E+00
  0.00000000E+00  0.00000000E+00  0.00000000E+00
