Primitive Cell
  1.000000
    0.00000000000000    5.26142888963197    5.26142888963197
    5.26142888963197    0.00000000000000    5.26142888963197
    5.26142888963197    5.26142888963197    0.00000000000000
  C   Cr
   6  23
DIRECT
    0.7234009328136317    0.2765990671863683    0.2765990671863683     C1
    0.2765990671863683    0.7234009328136317    0.2765990671863683     C2
    0.7234009328136317    0.7234009328136317    0.2765990671863683     C3
    0.2765990671863683    0.2765990671863683    0.7234009328136317     C4
    0.7234009328136317    0.2765990671863683    0.7234009328136317     C5
    0.2765990671863683    0.7234009328136317    0.7234009328136317     C6
    0.0000000000000000    0.0000000000000000    0.0000000000000000    Cr1
    0.3398145856312849    0.0000000000000000    0.0000000000000000    Cr2
    0.6601854143687151    0.0000000000000000    0.0000000000000000    Cr3
    0.0000000000000000    0.3398145856312849    0.0000000000000000    Cr4
    0.6601854143687151    0.3398145856312849    0.0000000000000000    Cr5
    0.0000000000000000    0.6601854143687151    0.0000000000000000    Cr6
    0.3398145856312849    0.6601854143687151    0.0000000000000000    Cr7
    0.6190945781676196    0.6190945781676196    0.1427162654971412    Cr8
    0.2500000000000000    0.2500000000000000    0.2500000000000000    Cr9
    0.0000000000000000    0.0000000000000000    0.3398145856312849   Cr10
    0.6601854143687151    0.0000000000000000    0.3398145856312849   Cr11
    0.0000000000000000    0.6601854143687151    0.3398145856312849   Cr12
    0.8572837345028588    0.3809054218323804    0.3809054218323804   Cr13
    0.3809054218323804    0.3809054218323804    0.3809054218323804   Cr14
    0.3809054218323804    0.8572837345028588    0.3809054218323804   Cr15
    0.1427162654971412    0.6190945781676196    0.6190945781676196   Cr16
    0.6190945781676196    0.1427162654971412    0.6190945781676196   Cr17
    0.6190945781676196    0.6190945781676196    0.6190945781676196   Cr18
    0.0000000000000000    0.0000000000000000    0.6601854143687151   Cr19
    0.3398145856312849    0.0000000000000000    0.6601854143687151   Cr20
    0.0000000000000000    0.3398145856312849    0.6601854143687151   Cr21
    0.7500000000000000    0.7500000000000000    0.7500000000000000   Cr22
    0.3809054218323804    0.3809054218323804    0.8572837345028588   Cr23
