Primitive Cell
  1.000000
    2.05209674739690   -3.56217685068301    0.00000000000000
    2.05209674739690    3.56217685068301    0.00000000000000
    0.00000000000000    0.00000000000000    6.71219109455862
  B   Be  Cr
   2   6   4
DIRECT
    0.3285748413023759    0.6714251586976241    0.7500000000000000     B1
    0.6714251586976241    0.3285748413023759    0.2500000000000000     B2
    0.5000000000000000    0.5000000000000000    0.5000000000000000    Be1
    0.3281078101091797    0.1585931598348849    0.7500000000000000    Be2
    0.8414068401651151    0.6718921898908203    0.7500000000000000    Be3
    0.5000000000000000    0.5000000000000000    0.0000000000000000    Be4
    0.1585931598348849    0.3281078101091797    0.2500000000000000    Be5
    0.6718921898908203    0.8414068401651151    0.2500000000000000    Be6
    0.8306231615814845    0.1693768384185155    0.5626995262724189    Cr1
    0.8306231615814845    0.1693768384185155    0.9373004737275811    Cr2
    0.1693768384185155    0.8306231615814845    0.0626995262724188    Cr3
    0.1693768384185155    0.8306231615814845    0.4373004737275811    Cr4
