Be B Cr                                 
   1.00000000000000     
     2.0520967473968983   -3.5621768506830103    0.0000000000000000
     2.0520967473968983    3.5621768506830103   -0.0000000000000000
     0.0000000000000000   -0.0000000000000000    6.7121910945586212
   B    Be   Cr
     2     6     4
Direct
  0.3285748413023759  0.6714251586976241  0.2500000000000000
  0.6714251586976241  0.3285748413023759  0.7500000000000000
  0.5000000000000000  0.5000000000000000 -0.0000000000000000
  0.3281078101091798  0.1585931598348850  0.2500000000000000
  0.8414068401651150  0.6718921898908200  0.2500000000000000
  0.5000000000000000  0.5000000000000000  0.5000000000000000
  0.1585931598348850  0.3281078101091798  0.7500000000000000
  0.6718921898908200  0.8414068401651150  0.7500000000000000
  0.8306231615814845  0.1693768384185155  0.0626995262724189
  0.8306231615814845  0.1693768384185155  0.4373004737275810
  0.1693768384185155  0.8306231615814845  0.5626995262724188
  0.1693768384185155  0.8306231615814845  0.9373004737275812
 
  0.00000000E+00  0.00000000E+00  0.00000000E+00
  0.00000000E+00  0.00000000E+00  0.00000000E+00
  0.00000000E+00  0.00000000E+00  0.00000000E+00
  0.00000000E+00  0.00000000E+00  0.00000000E+00
  0.00000000E+00  0.00000000E+00  0.00000000E+00
  0.00000000E+00  0.00000000E+00  0.00000000E+00
  0.00000000E+00  0.00000000E+00  0.00000000E+00
  0.00000000E+00  0.00000000E+00  0.00000000E+00
  0.00000000E+00  0.00000000E+00  0.00000000E+00
  0.00000000E+00  0.00000000E+00  0.00000000E+00
  0.00000000E+00  0.00000000E+00  0.00000000E+00
  0.00000000E+00  0.00000000E+00  0.00000000E+00
