C Mn N
1.0
  4.371609182000   0.000000000000   0.000000000000
 -0.011270489000   4.829865948000   0.000000000000
 -0.011438485000  -0.000881226000   5.528643181000
C Mn N
1 8 3
Direct
  0.000000000000   0.250039957909   0.634886333787
  0.752750056404   0.919316325151   0.118714479939
  0.247187003843   0.580853524203   0.118763316514
  0.251282196147   0.079901941602   0.380909009870
  0.748789325999   0.420323398283   0.380910818632
  0.250788749825   0.583105995327   0.617084497644
  0.749143020738   0.916697040303   0.617117055361
  0.749353854400   0.419911877030   0.882947197022
  0.250726967507   0.079861041939   0.883005077408
  0.499971849404   0.250006718680   0.134968015763
  0.000000000000   0.749992316278   0.365796802903
  0.500075795405   0.749992279787   0.864901178002
