N C V                                   
   1.00000000000000     
     4.4940949425005803    0.0000000000000000   -0.0011765183054841
     0.0000000000000000    5.7167166246912835    0.0000000000000000
    -0.0049299419417977    0.0000000000000000    4.9314308231667008
   C    N    V 
     1     3     8
Direct
  0.0000000000000000  0.6270149049347455  0.5000000000000000
  0.0000000000000000  0.3727569780964509  0.0000000000000000
  0.5000000000000000  0.8746332590170633  0.0000000000000000
  0.5000000000000000  0.1266259018608007  0.5000000000000000
  0.7424043491234359  0.6168355833645484  0.1683426708413446
  0.7573344611797884  0.1192062575946847  0.1714693408314918
  0.2572633068312095  0.3802570994937730  0.3272197146961039
  0.2447034643079948  0.8831853951864583  0.3278378757274326
  0.7552965356920051  0.8831853951864583  0.6721621242725674
  0.7427366931687905  0.3802570994937730  0.6727802853038962
  0.2426655388202116  0.1192062575946847  0.8285306591685083
  0.2575956508765641  0.6168355833645484  0.8316573291586554
 
  0.00000000E+00  0.00000000E+00  0.00000000E+00
  0.00000000E+00  0.00000000E+00  0.00000000E+00
  0.00000000E+00  0.00000000E+00  0.00000000E+00
  0.00000000E+00  0.00000000E+00  0.00000000E+00
  0.00000000E+00  0.00000000E+00  0.00000000E+00
  0.00000000E+00  0.00000000E+00  0.00000000E+00
  0.00000000E+00  0.00000000E+00  0.00000000E+00
  0.00000000E+00  0.00000000E+00  0.00000000E+00
  0.00000000E+00  0.00000000E+00  0.00000000E+00
  0.00000000E+00  0.00000000E+00  0.00000000E+00
  0.00000000E+00  0.00000000E+00  0.00000000E+00
  0.00000000E+00  0.00000000E+00  0.00000000E+00
