generated by phonopy
   1.0
     5.3074300520000000   -9.1285094820000001    0.0000000000000000
     5.3074300520000000    9.1285094820000001    0.0000000000000000
    -3.5482169699999999    0.0000000000000000    9.9699310160000003
C N Ti
  32    8   48
Direct
  0.4169589673625000  0.0830410326375000  0.0000000000000000
  0.9169589673625000  0.0830410326375000  0.0000000000000000
  0.4169589673625000  0.5830410326375000  0.0000000000000000
  0.9169589673625000  0.5830410326375000  0.0000000000000000
  0.4169589673625000  0.0830410326375000  0.5000000000000000
  0.9169589673625000  0.0830410326375000  0.5000000000000000
  0.4169589673625000  0.5830410326375000  0.5000000000000000
  0.9169589673625000  0.5830410326375000  0.5000000000000000
  0.0830410326375000  0.4169589673625000  0.0000000000000000
  0.5830410326375000  0.4169589673625000  0.0000000000000000
  0.0830410326375000  0.9169589673625000  0.0000000000000000
  0.5830410326375000  0.9169589673625000  0.0000000000000000
  0.0830410326375000  0.4169589673625000  0.5000000000000000
  0.5830410326375000  0.4169589673625000  0.5000000000000000
  0.0830410326375000  0.9169589673625000  0.5000000000000000
  0.5830410326375000  0.9169589673625000  0.5000000000000000
  0.3334321877165000  0.1665678122835000  0.2500000000000000
  0.8334321877165001  0.1665678122835000  0.2500000000000000
  0.3334321877165000  0.6665678122835000  0.2500000000000000
  0.8334321877165001  0.6665678122835000  0.2500000000000000
  0.3334321877165000  0.1665678122835000  0.7500000000000000
  0.8334321877165001  0.1665678122835000  0.7500000000000000
  0.3334321877165000  0.6665678122835000  0.7500000000000000
  0.8334321877165001  0.6665678122835000  0.7500000000000000
  0.1665678122835000  0.3334321877165000  0.2500000000000000
  0.6665678122835000  0.3334321877165000  0.2500000000000000
  0.1665678122835000  0.8334321877165001  0.2500000000000000
  0.6665678122835000  0.8334321877165001  0.2500000000000000
  0.1665678122835000  0.3334321877165000  0.7500000000000000
  0.6665678122835000  0.3334321877165000  0.7500000000000000
  0.1665678122835000  0.8334321877165001  0.7500000000000000
  0.6665678122835000  0.8334321877165001  0.7500000000000000
  0.2500000000000000  0.2500000000000000  0.0000000000000000
  0.7500000000000000  0.2500000000000000  0.0000000000000000
  0.2500000000000000  0.7500000000000000  0.0000000000000000
  0.7500000000000000  0.7500000000000000  0.0000000000000000
  0.2500000000000000  0.2500000000000000  0.5000000000000000
  0.7500000000000000  0.2500000000000000  0.5000000000000000
  0.2500000000000000  0.7500000000000000  0.5000000000000000
  0.7500000000000000  0.7500000000000000  0.5000000000000000
  0.1327065862600000  0.1327065862600000  0.1173679133910000
  0.6327065862600000  0.1327065862600000  0.1173679133910000
  0.1327065862600000  0.6327065862600000  0.1173679133910000
  0.6327065862600000  0.6327065862600000  0.1173679133910000
  0.1327065862600000  0.1327065862600000  0.6173679133909999
  0.6327065862600000  0.1327065862600000  0.6173679133909999
  0.1327065862600000  0.6327065862600000  0.6173679133909999
  0.6327065862600000  0.6327065862600000  0.6173679133909999
  0.4571053964840000  0.2821433135175000  0.1232917256925000
  0.9571053964839999  0.2821433135175000  0.1232917256925000
  0.4571053964840000  0.7821433135175000  0.1232917256925000
  0.9571053964839999  0.7821433135175000  0.1232917256925000
  0.4571053964840000  0.2821433135175000  0.6232917256925000
  0.9571053964839999  0.2821433135175000  0.6232917256925000
  0.4571053964840000  0.7821433135175000  0.6232917256925000
  0.9571053964839999  0.7821433135175000  0.6232917256925000
  0.2821433135175000  0.4571053964840000  0.1232917256925000
  0.7821433135175000  0.4571053964840000  0.1232917256925000
  0.2821433135175000  0.9571053964839999  0.1232917256925000
  0.7821433135175000  0.9571053964839999  0.1232917256925000
  0.2821433135175000  0.4571053964840000  0.6232917256925000
  0.7821433135175000  0.4571053964840000  0.6232917256925000
  0.2821433135175000  0.9571053964839999  0.6232917256925000
  0.7821433135175000  0.9571053964839999  0.6232917256925000
  0.2178566864825000  0.0428946035160000  0.3767082743075000
  0.7178566864825000  0.0428946035160000  0.3767082743075000
  0.2178566864825000  0.5428946035160001  0.3767082743075000
  0.7178566864825000  0.5428946035160001  0.3767082743075000
  0.2178566864825000  0.0428946035160000  0.8767082743075000
  0.7178566864825000  0.0428946035160000  0.8767082743075000
  0.2178566864825000  0.5428946035160001  0.8767082743075000
  0.7178566864825000  0.5428946035160001  0.8767082743075000
  0.0428946035160000  0.2178566864825000  0.3767082743075000
  0.5428946035160001  0.2178566864825000  0.3767082743075000
  0.0428946035160000  0.7178566864825000  0.3767082743075000
  0.5428946035160001  0.7178566864825000  0.3767082743075000
  0.0428946035160000  0.2178566864825000  0.8767082743075000
  0.5428946035160001  0.2178566864825000  0.8767082743075000
  0.0428946035160000  0.7178566864825000  0.8767082743075000
  0.5428946035160001  0.7178566864825000  0.8767082743075000
  0.3672934137400000  0.3672934137400000  0.3826320866090000
  0.8672934137400000  0.3672934137400000  0.3826320866090000
  0.3672934137400000  0.8672934137400000  0.3826320866090000
  0.8672934137400000  0.8672934137400000  0.3826320866090000
  0.3672934137400000  0.3672934137400000  0.8826320866090001
  0.8672934137400000  0.3672934137400000  0.8826320866090001
  0.3672934137400000  0.8672934137400000  0.8826320866090001
  0.8672934137400000  0.8672934137400000  0.8826320866090001
