Primitive Cell
  1.000000
    1.46199721383104   -4.79923854301851    0.00000000000000
    1.46199721383104    4.79923854301851    0.00000000000000
    0.00000000000000    0.00000000000000    7.52027934202725
  Be  N   V 
   2   2   6
DIRECT
    0.7441528837678371    0.2558471162321629    0.7500000000000000    Be1
    0.2558471162321629    0.7441528837678371    0.2500000000000000    Be2
   -0.0000000000000000    0.0000000000000000    0.5000000000000000     N1
   -0.0000000000000000    0.0000000000000000    0.0000000000000000     N2
    0.3621684365704165    0.6378315634295835    0.5506680396546679     V1
    0.0589293842629706    0.9410706157370294    0.7500000000000000     V2
    0.3621684365704165    0.6378315634295835    0.9493319603453321     V3
    0.6378315634295835    0.3621684365704165    0.0506680396546679     V4
    0.9410706157370294    0.0589293842629705    0.2500000000000000     V5
    0.6378315634295835    0.3621684365704165    0.4493319603453320     V6
