B N C
1.0
  2.784316417930   1.607525833401   4.084932757000
 -2.784316417930   1.607525833401   4.084932757000
  0.000000000000  -3.215051666802   4.084932757000
B C N
13 1 1
Direct
  0.331428903848   0.005151273881   0.005151273881
  0.005151273881   0.331428903848   0.005151273881
  0.686268315948   0.194172116316   0.194172116316
  0.194172116316   0.686268315948   0.194172116316
  0.804002771257   0.804002771257   0.316439844577
  0.005151273881   0.005151273881   0.331428903848
  0.497874372622   0.497874372622   0.497874372622
  0.995502416786   0.995502416786   0.671479630131
  0.194172116316   0.194172116316   0.686268315948
  0.804002771257   0.316439844577   0.804002771257
  0.316439844577   0.804002771257   0.804002771257
  0.995502416786   0.671479630131   0.995502416786
  0.671479630131   0.995502416786   0.995502416786
  0.614894658741   0.614894658741   0.614894658741
  0.383956544753   0.383956544753   0.383956544753
