Primitive Cell
  1.000000
    4.78310837020320    0.00000000000000    0.00000000000000
   -2.39155418510160    4.14229335764996    0.00000000000000
    0.00000000000000    0.00000000000000    4.40386924133174
  Cr  N 
   6   3
DIRECT
    0.3259157272918208    0.0000000000000000    0.2536740330592144    Cr1
   -0.0000000000000000    0.3259157272918207    0.2536740330592144    Cr2
    0.6740842727081793    0.6740842727081793    0.2536740330592144    Cr3
    0.6740842727081793    0.0000000000000000    0.7463259669407856    Cr4
    0.3259157272918207    0.3259157272918207    0.7463259669407856    Cr5
    0.0000000000000000    0.6740842727081793    0.7463259669407856    Cr6
    0.0000000000000000    0.0000000000000000    0.0000000000000000     N1
    0.6666666666666665    0.3333333333333333    0.5000000000000001     N2
    0.3333333333333334    0.6666666666666667    0.5000000000000001     N3
