Ti N C
1.0
  2.653715026000  -4.564254741000   0.000000000000
  2.653715026000   4.564254741000   0.000000000000
 -1.774108485000   0.000000000000   4.984965508000
C N Ti
4 1 6
Direct
  0.833917934725   0.166082065275   0.000000000000
  0.166082065275   0.833917934725   0.000000000000
  0.666864375433   0.333135624567   0.500000000000
  0.333135624567   0.666864375433   0.500000000000
  0.500000000000   0.500000000000   0.000000000000
  0.265413172520   0.265413172520   0.234735826782
  0.914210792968   0.564286627035   0.246583451385
  0.564286627035   0.914210792968   0.246583451385
  0.435713372965   0.085789207032   0.753416548615
  0.085789207032   0.435713372965   0.753416548615
  0.734586827480   0.734586827480   0.765264173218
