Primitive Cell
  1.000000
    1.48485071574032   -3.02411814120493    0.00000000000000
    1.48485071574032    3.02411814120493    0.00000000000000
    0.00000000000000    0.00000000000000    5.13315413292130
  B   Be
   4   2
DIRECT
    0.7279506088895186    0.2720493911104814    0.5893115919763134     B1
    0.7279506088895186    0.2720493911104814    0.9106884080236866     B2
    0.2720493911104814    0.7279506088895186    0.0893115919763134     B3
    0.2720493911104814    0.7279506088895186    0.4106884080236866     B4
    0.4112913482918075    0.5887086517081925    0.7500000000000000    Be1
    0.5887086517081925    0.4112913482918075    0.2500000000000000    Be2
