generated by phonopy
   1.0
    15.3209854407129793   -0.0000000039796476    0.0000000000000000
    -7.6604927169100145   13.2683626046588401    0.0000000000000000
     0.0000000000000000    0.0000000000000000    5.8500581450648603
N Si
  64   48
Direct
  0.0153824274017000  0.1650031411856581  0.1258809371859026
  0.5153824274017000  0.1650031411856581  0.1258809371859026
  0.0153824274017000  0.6650031411856581  0.1258809371859026
  0.5153824274017000  0.6650031411856581  0.1258809371859026
  0.0153824274017000  0.1650031411856581  0.6258809371859027
  0.5153824274017000  0.1650031411856581  0.6258809371859027
  0.0153824274017000  0.6650031411856581  0.6258809371859027
  0.5153824274017000  0.6650031411856581  0.6258809371859027
  0.3349968588143420  0.3503792862160419  0.1258809371859026
  0.8349968588143419  0.3503792862160419  0.1258809371859026
  0.3349968588143420  0.8503792862160420  0.1258809371859026
  0.8349968588143419  0.8503792862160420  0.1258809371859026
  0.3349968588143420  0.3503792862160419  0.6258809371859027
  0.8349968588143419  0.3503792862160419  0.6258809371859027
  0.3349968588143420  0.8503792862160420  0.6258809371859027
  0.8349968588143419  0.8503792862160420  0.6258809371859027
  0.1496207137839581  0.4846175725983000  0.1258809371859026
  0.6496207137839581  0.4846175725983000  0.1258809371859026
  0.1496207137839581  0.9846175725983000  0.1258809371859026
  0.6496207137839581  0.9846175725983000  0.1258809371859026
  0.1496207137839581  0.4846175725983000  0.6258809371859027
  0.6496207137839581  0.4846175725983000  0.6258809371859027
  0.1496207137839581  0.9846175725983000  0.6258809371859027
  0.6496207137839581  0.9846175725983000  0.6258809371859027
  0.3333333333334991  0.1666666666665008  0.1258646432131870
  0.8333333333334991  0.1666666666665008  0.1258646432131870
  0.3333333333334991  0.6666666666665009  0.1258646432131870
  0.8333333333334991  0.6666666666665009  0.1258646432131870
  0.3333333333334991  0.1666666666665008  0.6258646432131870
  0.8333333333334991  0.1666666666665008  0.6258646432131870
  0.3333333333334991  0.6666666666665009  0.6258646432131870
  0.8333333333334991  0.6666666666665009  0.6258646432131870
  0.3503792862160419  0.0153824274017000  0.3758809371859026
  0.8503792862160420  0.0153824274017000  0.3758809371859026
  0.3503792862160419  0.5153824274017000  0.3758809371859026
  0.8503792862160420  0.5153824274017000  0.3758809371859026
  0.3503792862160419  0.0153824274017000  0.8758809371859027
  0.8503792862160420  0.0153824274017000  0.8758809371859027
  0.3503792862160419  0.5153824274017000  0.8758809371859027
  0.8503792862160420  0.5153824274017000  0.8758809371859027
  0.1650031411856581  0.1496207137839581  0.3758809371859026
  0.6650031411856581  0.1496207137839581  0.3758809371859026
  0.1650031411856581  0.6496207137839581  0.3758809371859026
  0.6650031411856581  0.6496207137839581  0.3758809371859026
  0.1650031411856581  0.1496207137839581  0.8758809371859027
  0.6650031411856581  0.1496207137839581  0.8758809371859027
  0.1650031411856581  0.6496207137839581  0.8758809371859027
  0.6650031411856581  0.6496207137839581  0.8758809371859027
  0.4846175725983000  0.3349968588143420  0.3758809371859026
  0.9846175725983000  0.3349968588143420  0.3758809371859026
  0.4846175725983000  0.8349968588143419  0.3758809371859026
  0.9846175725983000  0.8349968588143419  0.3758809371859026
  0.4846175725983000  0.3349968588143420  0.8758809371859027
  0.9846175725983000  0.3349968588143420  0.8758809371859027
  0.4846175725983000  0.8349968588143419  0.8758809371859027
  0.9846175725983000  0.8349968588143419  0.8758809371859027
  0.1666666666665008  0.3333333333334991  0.3758646432131870
  0.6666666666665009  0.3333333333334991  0.3758646432131870
  0.1666666666665008  0.8333333333334991  0.3758646432131870
  0.6666666666665009  0.8333333333334991  0.3758646432131870
  0.1666666666665008  0.3333333333334991  0.8758646432131870
  0.6666666666665009  0.3333333333334991  0.8758646432131870
  0.1666666666665008  0.8333333333334991  0.8758646432131870
  0.6666666666665009  0.8333333333334991  0.8758646432131870
  0.3844284216829968  0.0874916480373994  0.1258814348203699
  0.8844284216829967  0.0874916480373994  0.1258814348203699
  0.3844284216829968  0.5874916480373994  0.1258814348203699
  0.8844284216829967  0.5874916480373994  0.1258814348203699
  0.3844284216829968  0.0874916480373994  0.6258814348203698
  0.8844284216829967  0.0874916480373994  0.6258814348203698
  0.3844284216829968  0.5874916480373994  0.6258814348203698
  0.8844284216829967  0.5874916480373994  0.6258814348203698
  0.2030632263539016  0.1155715783170032  0.1258814348203699
  0.7030632263539016  0.1155715783170032  0.1258814348203699
  0.2030632263539016  0.6155715783170032  0.1258814348203699
  0.7030632263539016  0.6155715783170032  0.1258814348203699
  0.2030632263539016  0.1155715783170032  0.6258814348203698
  0.7030632263539016  0.1155715783170032  0.6258814348203698
  0.2030632263539016  0.6155715783170032  0.6258814348203698
  0.7030632263539016  0.6155715783170032  0.6258814348203698
  0.4125083519626006  0.2969367736460984  0.1258814348203699
  0.9125083519626006  0.2969367736460984  0.1258814348203699
  0.4125083519626006  0.7969367736460984  0.1258814348203699
  0.9125083519626006  0.7969367736460984  0.1258814348203699
  0.4125083519626006  0.2969367736460984  0.6258814348203698
  0.9125083519626006  0.2969367736460984  0.6258814348203698
  0.4125083519626006  0.7969367736460984  0.6258814348203698
  0.9125083519626006  0.7969367736460984  0.6258814348203698
  0.0874916480373994  0.2030632263539016  0.3758814348203700
  0.5874916480373994  0.2030632263539016  0.3758814348203700
  0.0874916480373994  0.7030632263539016  0.3758814348203700
  0.5874916480373994  0.7030632263539016  0.3758814348203700
  0.0874916480373994  0.2030632263539016  0.8758814348203701
  0.5874916480373994  0.2030632263539016  0.8758814348203701
  0.0874916480373994  0.7030632263539016  0.8758814348203701
  0.5874916480373994  0.7030632263539016  0.8758814348203701
  0.2969367736460984  0.3844284216829968  0.3758814348203700
  0.7969367736460984  0.3844284216829968  0.3758814348203700
  0.2969367736460984  0.8844284216829967  0.3758814348203700
  0.7969367736460984  0.8844284216829967  0.3758814348203700
  0.2969367736460984  0.3844284216829968  0.8758814348203701
  0.7969367736460984  0.3844284216829968  0.8758814348203701
  0.2969367736460984  0.8844284216829967  0.8758814348203701
  0.7969367736460984  0.8844284216829967  0.8758814348203701
  0.1155715783170032  0.4125083519626006  0.3758814348203700
  0.6155715783170032  0.4125083519626006  0.3758814348203700
  0.1155715783170032  0.9125083519626006  0.3758814348203700
  0.6155715783170032  0.9125083519626006  0.3758814348203700
  0.1155715783170032  0.4125083519626006  0.8758814348203701
  0.6155715783170032  0.4125083519626006  0.8758814348203701
  0.1155715783170032  0.9125083519626006  0.8758814348203701
  0.6155715783170032  0.9125083519626006  0.8758814348203701
