Primitive Cell
  1.000000
    4.14228643727715    0.00000000000000    0.00000000000000
   -2.07114321863857    3.58732528443374    0.00000000000000
    0.00000000000000    0.00000000000000    6.74621269723846
  Be  Mn
   8   4
DIRECT
    0.0000000000000000    0.0000000000000000    0.0000000000000000    Be1
    0.3404083347014510    0.1702041673507255    0.2500000000000000    Be2
    0.8297958326492745    0.1702041673507255    0.2500000000000000    Be3
    0.8297958326492745    0.6595916652985490    0.2500000000000000    Be4
    0.0000000000000000    0.0000000000000000    0.5000000000000000    Be5
    0.1702041673507255    0.3404083347014510    0.7500000000000000    Be6
    0.1702041673507255    0.8297958326492745    0.7500000000000000    Be7
    0.6595916652985490    0.8297958326492745    0.7500000000000000    Be8
    0.3333333333333333    0.6666666666666666    0.0601285269013341    Mn1
    0.3333333333333333    0.6666666666666667    0.4398714730986659    Mn2
    0.6666666666666667    0.3333333333333333    0.5601285269013341    Mn3
    0.6666666666666667    0.3333333333333334    0.9398714730986659    Mn4
