generated by phonopy
   1.0
     7.4213809265446082    0.0000000000000000   -0.0134438020636114
     0.0000000000000000    6.0134699623556260    0.0000000000000000
    -1.6929812031496683    0.0000000000000000   11.2593638363204089
B Be Li
  16   16   16
Direct
  0.4410282613402106  0.1250000000000000  0.2368935049339885
  0.9410282613402106  0.1250000000000000  0.2368935049339885
  0.4410282613402106  0.6250000000000000  0.2368935049339885
  0.9410282613402106  0.6250000000000000  0.2368935049339885
  0.4410282613402106  0.1250000000000000  0.7368935049339885
  0.9410282613402106  0.1250000000000000  0.7368935049339885
  0.4410282613402106  0.6250000000000000  0.7368935049339885
  0.9410282613402106  0.6250000000000000  0.7368935049339885
  0.0589717386597894  0.3750000000000000  0.2631064950660114
  0.5589717386597894  0.3750000000000000  0.2631064950660114
  0.0589717386597894  0.8750000000000000  0.2631064950660114
  0.5589717386597894  0.8750000000000000  0.2631064950660114
  0.0589717386597894  0.3750000000000000  0.7631064950660114
  0.5589717386597894  0.3750000000000000  0.7631064950660114
  0.0589717386597894  0.8750000000000000  0.7631064950660114
  0.5589717386597894  0.8750000000000000  0.7631064950660114
  0.1762847433968119  0.1250000000000000  0.1945102693489517
  0.6762847433968119  0.1250000000000000  0.1945102693489517
  0.1762847433968119  0.6250000000000000  0.1945102693489517
  0.6762847433968119  0.6250000000000000  0.1945102693489517
  0.1762847433968119  0.1250000000000000  0.6945102693489517
  0.6762847433968119  0.1250000000000000  0.6945102693489517
  0.1762847433968119  0.6250000000000000  0.6945102693489517
  0.6762847433968119  0.6250000000000000  0.6945102693489517
  0.3237152566031882  0.3750000000000000  0.3054897306510482
  0.8237152566031882  0.3750000000000000  0.3054897306510482
  0.3237152566031882  0.8750000000000000  0.3054897306510482
  0.8237152566031882  0.8750000000000000  0.3054897306510482
  0.3237152566031882  0.3750000000000000  0.8054897306510482
  0.8237152566031882  0.3750000000000000  0.8054897306510482
  0.3237152566031882  0.8750000000000000  0.8054897306510482
  0.8237152566031882  0.8750000000000000  0.8054897306510482
  0.3874616307498575  0.3750000000000000  0.0802901087492860
  0.8874616307498575  0.3750000000000000  0.0802901087492860
  0.3874616307498575  0.8750000000000000  0.0802901087492860
  0.8874616307498575  0.8750000000000000  0.0802901087492860
  0.3874616307498575  0.3750000000000000  0.5802901087492860
  0.8874616307498575  0.3750000000000000  0.5802901087492860
  0.3874616307498575  0.8750000000000000  0.5802901087492860
  0.8874616307498575  0.8750000000000000  0.5802901087492860
  0.1125383692501425  0.1250000000000000  0.4197098912507141
  0.6125383692501425  0.1250000000000000  0.4197098912507141
  0.1125383692501425  0.6250000000000000  0.4197098912507141
  0.6125383692501425  0.6250000000000000  0.4197098912507141
  0.1125383692501425  0.1250000000000000  0.9197098912507140
  0.6125383692501425  0.1250000000000000  0.9197098912507140
  0.1125383692501425  0.6250000000000000  0.9197098912507140
  0.6125383692501425  0.6250000000000000  0.9197098912507140
