Si N
1.0
  7.614948782824   0.000000000000   0.000000000000
 -3.807474391412   6.594739094443   0.000000000000
  0.000000000000   0.000000000000   2.909879000000
N Si
8 6
Direct
  0.030192604706   0.329813588732   0.251656512178
  0.670186411268   0.700379015974   0.251656512178
  0.299620984026   0.969807395294   0.251656512178
  0.666666666667   0.333333333333   0.251807721215
  0.700379015974   0.030192604706   0.751656512178
  0.329813588732   0.299620984026   0.751656512178
  0.969807395294   0.670186411268   0.751656512178
  0.333333333333   0.666666666667   0.751807721215
  0.768175288596   0.174377041919   0.251842086905
  0.406201753322   0.231824711404   0.251842086905
  0.825622958081   0.593798246678   0.251842086905
  0.174377041919   0.406201753322   0.751842086905
  0.593798246678   0.768175288596   0.751842086905
  0.231824711404   0.825622958081   0.751842086905
