C Li                                    
   1.00000000000000     
     3.3021237596251853   -1.9127284719596840    0.0005673283831451
     3.3021237596251853    1.9127284719596840    0.0005673283831451
    -2.9366752207383735    0.0000000000000000    5.5013194399880074
   C    Li
     3     4
Direct
  0.0000000000000000  0.0000000000000000  0.0000000000000000
  0.0340489178455127  0.0340489178455127  0.2295769635804128
  0.9659510821544873  0.9659510821544873  0.7704230364195872
  0.3619668868641006  0.3619668868641006  0.1609133144851103
  0.7878535371443551  0.7878535371443551  0.3868030594607301
  0.2121464628556449  0.2121464628556449  0.6131969405392700
  0.6380331131358994  0.6380331131358994  0.8390866855148896
 
  0.00000000E+00  0.00000000E+00  0.00000000E+00
  0.00000000E+00  0.00000000E+00  0.00000000E+00
  0.00000000E+00  0.00000000E+00  0.00000000E+00
  0.00000000E+00  0.00000000E+00  0.00000000E+00
  0.00000000E+00  0.00000000E+00  0.00000000E+00
  0.00000000E+00  0.00000000E+00  0.00000000E+00
  0.00000000E+00  0.00000000E+00  0.00000000E+00
