generated by phonopy
   1.0
     6.6042475192503707   -3.8254569439193680    0.0011346567662902
     6.6042475192503707    3.8254569439193680    0.0011346567662902
    -5.8733504414767470    0.0000000000000000   11.0026388799760149
C Li
  24   32
Direct
  0.0000000000000000  0.0000000000000000  0.0000000000000000
  0.5000000000000000  0.0000000000000000  0.0000000000000000
  0.0000000000000000  0.5000000000000000  0.0000000000000000
  0.5000000000000000  0.5000000000000000  0.0000000000000000
  0.0000000000000000  0.0000000000000000  0.5000000000000000
  0.5000000000000000  0.0000000000000000  0.5000000000000000
  0.0000000000000000  0.5000000000000000  0.5000000000000000
  0.5000000000000000  0.5000000000000000  0.5000000000000000
  0.0170244589227563  0.0170244589227563  0.1147884817902064
  0.5170244589227564  0.0170244589227563  0.1147884817902064
  0.0170244589227563  0.5170244589227564  0.1147884817902064
  0.5170244589227564  0.5170244589227564  0.1147884817902064
  0.0170244589227563  0.0170244589227563  0.6147884817902064
  0.5170244589227564  0.0170244589227563  0.6147884817902064
  0.0170244589227563  0.5170244589227564  0.6147884817902064
  0.5170244589227564  0.5170244589227564  0.6147884817902064
  0.4829755410772437  0.4829755410772437  0.3852115182097936
  0.9829755410772436  0.4829755410772437  0.3852115182097936
  0.4829755410772437  0.9829755410772436  0.3852115182097936
  0.9829755410772436  0.9829755410772436  0.3852115182097936
  0.4829755410772437  0.4829755410772437  0.8852115182097936
  0.9829755410772436  0.4829755410772437  0.8852115182097936
  0.4829755410772437  0.9829755410772436  0.8852115182097936
  0.9829755410772436  0.9829755410772436  0.8852115182097936
  0.1809834434320503  0.1809834434320503  0.0804566572425551
  0.6809834434320503  0.1809834434320503  0.0804566572425551
  0.1809834434320503  0.6809834434320503  0.0804566572425551
  0.6809834434320503  0.6809834434320503  0.0804566572425551
  0.1809834434320503  0.1809834434320503  0.5804566572425551
  0.6809834434320503  0.1809834434320503  0.5804566572425551
  0.1809834434320503  0.6809834434320503  0.5804566572425551
  0.6809834434320503  0.6809834434320503  0.5804566572425551
  0.3939267685721776  0.3939267685721776  0.1934015297303651
  0.8939267685721776  0.3939267685721776  0.1934015297303651
  0.3939267685721776  0.8939267685721776  0.1934015297303651
  0.8939267685721776  0.8939267685721776  0.1934015297303651
  0.3939267685721776  0.3939267685721776  0.6934015297303651
  0.8939267685721776  0.3939267685721776  0.6934015297303651
  0.3939267685721776  0.8939267685721776  0.6934015297303651
  0.8939267685721776  0.8939267685721776  0.6934015297303651
  0.1060732314278224  0.1060732314278224  0.3065984702696350
  0.6060732314278224  0.1060732314278224  0.3065984702696350
  0.1060732314278224  0.6060732314278224  0.3065984702696350
  0.6060732314278224  0.6060732314278224  0.3065984702696350
  0.1060732314278224  0.1060732314278224  0.8065984702696349
  0.6060732314278224  0.1060732314278224  0.8065984702696349
  0.1060732314278224  0.6060732314278224  0.8065984702696349
  0.6060732314278224  0.6060732314278224  0.8065984702696349
  0.3190165565679497  0.3190165565679497  0.4195433427574448
  0.8190165565679497  0.3190165565679497  0.4195433427574448
  0.3190165565679497  0.8190165565679497  0.4195433427574448
  0.8190165565679497  0.8190165565679497  0.4195433427574448
  0.3190165565679497  0.3190165565679497  0.9195433427574449
  0.8190165565679497  0.3190165565679497  0.9195433427574449
  0.3190165565679497  0.8190165565679497  0.9195433427574449
  0.8190165565679497  0.8190165565679497  0.9195433427574449
