Ti N C                                  
   1.00000000000000     
     3.0464886411452459   -0.0000000000000000    0.0000000000000000
    -1.5232443205726229    2.6383365555732388   -0.0000000000000000
     0.0000000000000000   -0.0000000000000000    7.4707318440994346
   C    N    Ti
     2     1     3
Direct
  0.6666666666669983  0.3333333333330017  0.3301413174118195
  0.3333333333330017  0.6666666666669983  0.6698586825881805
 -0.0000000000000000 -0.0000000000000000  0.0000000000000000
  0.3333333333330017  0.6666666666669983  0.1692216711105149
 -0.0000000000000000 -0.0000000000000000  0.5000000000000000
  0.6666666666669983  0.3333333333330017  0.8307783288894851
 
  0.00000000E+00  0.00000000E+00  0.00000000E+00
  0.00000000E+00  0.00000000E+00  0.00000000E+00
  0.00000000E+00  0.00000000E+00  0.00000000E+00
  0.00000000E+00  0.00000000E+00  0.00000000E+00
  0.00000000E+00  0.00000000E+00  0.00000000E+00
  0.00000000E+00  0.00000000E+00  0.00000000E+00
