N C V
1.0
  4.490331749000   0.000000000000   0.000000000000
  0.000000000000   5.701973604000   0.000000000000
 -0.003638368000   0.000000000000   4.917739426000
C N V
1 3 8
Direct
  0.000000000000   0.627037276618   0.500000000000
  0.000000000000   0.372869141048   0.000000000000
  0.500000000000   0.874474409440   0.000000000000
  0.500000000000   0.126705251580   0.500000000000
  0.742662822708   0.616924988487   0.168331349283
  0.756866541810   0.119344642270   0.170917903571
  0.256909993326   0.380145568980   0.327371902726
  0.245230088270   0.883041618514   0.328293057673
  0.754769911730   0.883041618514   0.671706942327
  0.743090006674   0.380145568980   0.672628097274
  0.243133458190   0.119344642270   0.829082096429
  0.257337177292   0.616924988487   0.831668650717
