generated by phonopy
   1.0
    13.6024478526233707    0.0000000000000000    0.0000000000000000
     0.0000000000000000    4.1465609343310659    7.1932794931707607
     0.0000000000000000   -4.1465609343310659    7.1932794931707607
B Be Cr
   8   56   32
Direct
  0.0000000000000000  0.4143483158771616  0.4143483158771616
  0.5000000000000000  0.4143483158771616  0.4143483158771616
  0.0000000000000000  0.9143483158771616  0.4143483158771616
  0.5000000000000000  0.9143483158771616  0.4143483158771616
  0.0000000000000000  0.4143483158771616  0.9143483158771616
  0.5000000000000000  0.4143483158771616  0.9143483158771616
  0.0000000000000000  0.9143483158771616  0.9143483158771616
  0.5000000000000000  0.9143483158771616  0.9143483158771616
  0.2500000000000000  0.0852225311967303  0.0852225311967303
  0.7500000000000000  0.0852225311967303  0.0852225311967303
  0.2500000000000000  0.5852225311967303  0.0852225311967303
  0.7500000000000000  0.5852225311967303  0.0852225311967303
  0.2500000000000000  0.0852225311967303  0.5852225311967303
  0.7500000000000000  0.0852225311967303  0.5852225311967303
  0.2500000000000000  0.5852225311967303  0.5852225311967303
  0.7500000000000000  0.5852225311967303  0.5852225311967303
  0.2500000000000000  0.3304212978669973  0.0856575798753902
  0.7500000000000000  0.3304212978669973  0.0856575798753902
  0.2500000000000000  0.8304212978669974  0.0856575798753902
  0.7500000000000000  0.8304212978669974  0.0856575798753902
  0.2500000000000000  0.3304212978669973  0.5856575798753902
  0.7500000000000000  0.3304212978669973  0.5856575798753902
  0.2500000000000000  0.8304212978669974  0.5856575798753902
  0.7500000000000000  0.8304212978669974  0.5856575798753902
  0.0000000000000000  0.4145847661441924  0.1715258048556897
  0.5000000000000000  0.4145847661441924  0.1715258048556897
  0.0000000000000000  0.9145847661441924  0.1715258048556897
  0.5000000000000000  0.9145847661441924  0.1715258048556897
  0.0000000000000000  0.4145847661441924  0.6715258048556897
  0.5000000000000000  0.4145847661441924  0.6715258048556897
  0.0000000000000000  0.9145847661441924  0.6715258048556897
  0.5000000000000000  0.9145847661441924  0.6715258048556897
  0.2500000000000000  0.0856575798753902  0.3304212978669973
  0.7500000000000000  0.0856575798753902  0.3304212978669973
  0.2500000000000000  0.5856575798753902  0.3304212978669973
  0.7500000000000000  0.5856575798753902  0.3304212978669973
  0.2500000000000000  0.0856575798753902  0.8304212978669974
  0.7500000000000000  0.0856575798753902  0.8304212978669974
  0.2500000000000000  0.5856575798753902  0.8304212978669974
  0.7500000000000000  0.5856575798753902  0.8304212978669974
  0.0000000000000000  0.1715258048556897  0.4145847661441924
  0.5000000000000000  0.1715258048556897  0.4145847661441924
  0.0000000000000000  0.6715258048556897  0.4145847661441924
  0.5000000000000000  0.6715258048556897  0.4145847661441924
  0.0000000000000000  0.1715258048556897  0.9145847661441924
  0.5000000000000000  0.1715258048556897  0.9145847661441924
  0.0000000000000000  0.6715258048556897  0.9145847661441924
  0.5000000000000000  0.6715258048556897  0.9145847661441924
  0.1230086125686666  0.4981852258796003  0.4981852258796003
  0.6230086125686667  0.4981852258796003  0.4981852258796003
  0.1230086125686666  0.9981852258796002  0.4981852258796003
  0.6230086125686667  0.9981852258796002  0.4981852258796003
  0.1230086125686666  0.4981852258796003  0.9981852258796002
  0.6230086125686667  0.4981852258796003  0.9981852258796002
  0.1230086125686666  0.9981852258796002  0.9981852258796002
  0.6230086125686667  0.9981852258796002  0.9981852258796002
  0.3769913874313334  0.4981852258796003  0.4981852258796003
  0.8769913874313333  0.4981852258796003  0.4981852258796003
  0.3769913874313334  0.9981852258796002  0.4981852258796003
  0.8769913874313333  0.9981852258796002  0.4981852258796003
  0.3769913874313334  0.4981852258796003  0.9981852258796002
  0.8769913874313333  0.4981852258796003  0.9981852258796002
  0.3769913874313334  0.9981852258796002  0.9981852258796002
  0.8769913874313333  0.9981852258796002  0.9981852258796002
  0.0920357232972944  0.1662611063561205  0.1662611063561205
  0.5920357232972944  0.1662611063561205  0.1662611063561205
  0.0920357232972944  0.6662611063561205  0.1662611063561205
  0.5920357232972944  0.6662611063561205  0.1662611063561205
  0.0920357232972944  0.1662611063561205  0.6662611063561205
  0.5920357232972944  0.1662611063561205  0.6662611063561205
  0.0920357232972944  0.6662611063561205  0.6662611063561205
  0.5920357232972944  0.6662611063561205  0.6662611063561205
  0.4079642767027056  0.1662611063561205  0.1662611063561205
  0.9079642767027056  0.1662611063561205  0.1662611063561205
  0.4079642767027056  0.6662611063561205  0.1662611063561205
  0.9079642767027056  0.6662611063561205  0.1662611063561205
  0.4079642767027056  0.1662611063561205  0.6662611063561205
  0.9079642767027056  0.1662611063561205  0.6662611063561205
  0.4079642767027056  0.6662611063561205  0.6662611063561205
  0.9079642767027056  0.6662611063561205  0.6662611063561205
  0.1538645025295399  0.3346650017516977  0.3346650017516977
  0.6538645025295399  0.3346650017516977  0.3346650017516977
  0.1538645025295399  0.8346650017516977  0.3346650017516977
  0.6538645025295399  0.8346650017516977  0.3346650017516977
  0.1538645025295399  0.3346650017516977  0.8346650017516977
  0.6538645025295399  0.3346650017516977  0.8346650017516977
  0.1538645025295399  0.8346650017516977  0.8346650017516977
  0.6538645025295399  0.8346650017516977  0.8346650017516977
  0.3461354974704601  0.3346650017516977  0.3346650017516977
  0.8461354974704600  0.3346650017516977  0.3346650017516977
  0.3461354974704601  0.8346650017516977  0.3346650017516977
  0.8461354974704600  0.8346650017516977  0.3346650017516977
  0.3461354974704601  0.3346650017516977  0.8346650017516977
  0.8461354974704600  0.3346650017516977  0.8346650017516977
  0.3461354974704601  0.8346650017516977  0.8346650017516977
  0.8461354974704600  0.8346650017516977  0.8346650017516977
