Primitive Cell
  1.000000
    2.65371502600000   -4.56425474100000    0.00000000000000
    2.65371502600000    4.56425474100000    0.00000000000000
   -1.77410848500000    0.00000000000000    4.98496550800000
  C   N   Ti
   4   1   6
DIRECT
    0.8339179347250001    0.1660820652750000    0.0000000000000000     C1
    0.1660820652750000    0.8339179347250000    0.0000000000000000     C2
    0.6668643754330001    0.3331356245669999    0.5000000000000000     C3
    0.3331356245670000    0.6668643754330000    0.5000000000000000     C4
    0.5000000000000000    0.5000000000000000    0.0000000000000000     N1
    0.2654131725200000    0.2654131725200000    0.2347358267820000    Ti1
    0.9142107929679999    0.5642866270350000    0.2465834513850000    Ti2
    0.5642866270350000    0.9142107929679999    0.2465834513850000    Ti3
    0.4357133729650000    0.0857892070320001    0.7534165486150000    Ti4
    0.0857892070320001    0.4357133729650000    0.7534165486150000    Ti5
    0.7345868274800000    0.7345868274800000    0.7652641732180000    Ti6
