Primitive Cell
  1.000000
    3.04648864114556    0.00000000000000    0.00000000000000
   -1.52324432057278    2.63833655557279    0.00000000000000
    0.00000000000000    0.00000000000000    7.47073184409943
  C   N   Ti
   2   1   3
DIRECT
    0.6666666666666666    0.3333333333333333    0.3301413174118195     C1
    0.3333333333333334    0.6666666666666667    0.6698586825881805     C2
    0.0000000000000000    0.0000000000000000    0.0000000000000000     N1
    0.3333333333333333    0.6666666666666666    0.1692216711105149    Ti1
    0.0000000000000000    0.0000000000000000    0.5000000000000000    Ti2
    0.6666666666666667    0.3333333333333334    0.8307783288894851    Ti3
