generated by phonopy
   1.0
    10.4988497721334042    0.0000000000000000    0.0000000000000000
     0.0000000000000000   10.4988497721334042    0.0000000000000000
     0.0000000000000000    0.0000000000000000    5.6619440576144431
B Be Mn
  32   16   32
Direct
  0.1900908982502744  0.0599091017497256  0.0000000000000000
  0.6900908982502744  0.0599091017497256  0.0000000000000000
  0.1900908982502744  0.5599091017497256  0.0000000000000000
  0.6900908982502744  0.5599091017497256  0.0000000000000000
  0.1900908982502744  0.0599091017497256  0.5000000000000000
  0.6900908982502744  0.0599091017497256  0.5000000000000000
  0.1900908982502744  0.5599091017497256  0.5000000000000000
  0.6900908982502744  0.5599091017497256  0.5000000000000000
  0.4400908982502744  0.1900908982502744  0.0000000000000000
  0.9400908982502745  0.1900908982502744  0.0000000000000000
  0.4400908982502744  0.6900908982502744  0.0000000000000000
  0.9400908982502745  0.6900908982502744  0.0000000000000000
  0.4400908982502744  0.1900908982502744  0.5000000000000000
  0.9400908982502745  0.1900908982502744  0.5000000000000000
  0.4400908982502744  0.6900908982502744  0.5000000000000000
  0.9400908982502745  0.6900908982502744  0.5000000000000000
  0.0599091017497256  0.3099091017497256  0.0000000000000000
  0.5599091017497256  0.3099091017497256  0.0000000000000000
  0.0599091017497256  0.8099091017497255  0.0000000000000000
  0.5599091017497256  0.8099091017497255  0.0000000000000000
  0.0599091017497256  0.3099091017497256  0.5000000000000000
  0.5599091017497256  0.3099091017497256  0.5000000000000000
  0.0599091017497256  0.8099091017497255  0.5000000000000000
  0.5599091017497256  0.8099091017497255  0.5000000000000000
  0.3099091017497256  0.4400908982502744  0.0000000000000000
  0.8099091017497255  0.4400908982502744  0.0000000000000000
  0.3099091017497256  0.9400908982502745  0.0000000000000000
  0.8099091017497255  0.9400908982502745  0.0000000000000000
  0.3099091017497256  0.4400908982502744  0.5000000000000000
  0.8099091017497255  0.4400908982502744  0.5000000000000000
  0.3099091017497256  0.9400908982502745  0.5000000000000000
  0.8099091017497255  0.9400908982502745  0.5000000000000000
  0.0000000000000000  0.0000000000000000  0.0000000000000000
  0.5000000000000000  0.0000000000000000  0.0000000000000000
  0.0000000000000000  0.5000000000000000  0.0000000000000000
  0.5000000000000000  0.5000000000000000  0.0000000000000000
  0.0000000000000000  0.0000000000000000  0.5000000000000000
  0.5000000000000000  0.0000000000000000  0.5000000000000000
  0.0000000000000000  0.5000000000000000  0.5000000000000000
  0.5000000000000000  0.5000000000000000  0.5000000000000000
  0.2500000000000000  0.2500000000000000  0.0000000000000000
  0.7500000000000000  0.2500000000000000  0.0000000000000000
  0.2500000000000000  0.7500000000000000  0.0000000000000000
  0.7500000000000000  0.7500000000000000  0.0000000000000000
  0.2500000000000000  0.2500000000000000  0.5000000000000000
  0.7500000000000000  0.2500000000000000  0.5000000000000000
  0.2500000000000000  0.7500000000000000  0.5000000000000000
  0.7500000000000000  0.7500000000000000  0.5000000000000000
  0.3371930007883782  0.0871930007883782  0.2500000000000000
  0.8371930007883782  0.0871930007883782  0.2500000000000000
  0.3371930007883782  0.5871930007883782  0.2500000000000000
  0.8371930007883782  0.5871930007883782  0.2500000000000000
  0.3371930007883782  0.0871930007883782  0.7500000000000000
  0.8371930007883782  0.0871930007883782  0.7500000000000000
  0.3371930007883782  0.5871930007883782  0.7500000000000000
  0.8371930007883782  0.5871930007883782  0.7500000000000000
  0.0871930007883782  0.1628069992116218  0.2500000000000000
  0.5871930007883782  0.1628069992116218  0.2500000000000000
  0.0871930007883782  0.6628069992116218  0.2500000000000000
  0.5871930007883782  0.6628069992116218  0.2500000000000000
  0.0871930007883782  0.1628069992116218  0.7500000000000000
  0.5871930007883782  0.1628069992116218  0.7500000000000000
  0.0871930007883782  0.6628069992116218  0.7500000000000000
  0.5871930007883782  0.6628069992116218  0.7500000000000000
  0.4128069992116218  0.3371930007883782  0.2500000000000000
  0.9128069992116218  0.3371930007883782  0.2500000000000000
  0.4128069992116218  0.8371930007883782  0.2500000000000000
  0.9128069992116218  0.8371930007883782  0.2500000000000000
  0.4128069992116218  0.3371930007883782  0.7500000000000000
  0.9128069992116218  0.3371930007883782  0.7500000000000000
  0.4128069992116218  0.8371930007883782  0.7500000000000000
  0.9128069992116218  0.8371930007883782  0.7500000000000000
  0.1628069992116218  0.4128069992116218  0.2500000000000000
  0.6628069992116218  0.4128069992116218  0.2500000000000000
  0.1628069992116218  0.9128069992116218  0.2500000000000000
  0.6628069992116218  0.9128069992116218  0.2500000000000000
  0.1628069992116218  0.4128069992116218  0.7500000000000000
  0.6628069992116218  0.4128069992116218  0.7500000000000000
  0.1628069992116218  0.9128069992116218  0.7500000000000000
  0.6628069992116218  0.9128069992116218  0.7500000000000000
