C Cr
1.0
  0.000000000000   5.262840000000   5.262840000000
  5.262840000000   0.000000000000   5.262840000000
  5.262840000000   5.262840000000   0.000000000000
C Cr
6 23
Direct
  0.723421194640   0.276578805360   0.276578805360
  0.276578805360   0.723421194640   0.276578805360
  0.723421194640   0.723421194640   0.276578805360
  0.276578805360   0.276578805360   0.723421194640
  0.723421194640   0.276578805360   0.723421194640
  0.276578805360   0.723421194640   0.723421194640
  0.000000000000   0.000000000000   0.000000000000
  0.339691117343   0.000000000000   0.000000000000
  0.660308882657   0.000000000000   0.000000000000
  0.000000000000   0.339691117343   0.000000000000
  0.660308882657   0.339691117343   0.000000000000
  0.000000000000   0.660308882657   0.000000000000
  0.339691117343   0.660308882657   0.000000000000
  0.619043140206   0.619043140206   0.142870579383
  0.250000000000   0.250000000000   0.250000000000
  0.000000000000   0.000000000000   0.339691117343
  0.660308882657   0.000000000000   0.339691117343
  0.000000000000   0.660308882657   0.339691117343
  0.857129420617   0.380956859794   0.380956859794
  0.380956859794   0.380956859794   0.380956859794
  0.380956859794   0.857129420617   0.380956859794
  0.142870579383   0.619043140206   0.619043140206
  0.619043140206   0.142870579383   0.619043140206
  0.619043140206   0.619043140206   0.619043140206
  0.000000000000   0.000000000000   0.660308882657
  0.339691117343   0.000000000000   0.660308882657
  0.000000000000   0.339691117343   0.660308882657
  0.750000000000   0.750000000000   0.750000000000
  0.380956859794   0.380956859794   0.857129420617
