generated by phonopy
   1.0
     5.5727560588385892    3.2174322106986177    8.1767025285325659
    -5.5727560588385892    3.2174322106986177    8.1767025285325659
     0.0000000000000000   -6.4348644213972355    8.1767025285325659
B C N
 104    8    8
Direct
  0.1657400596562593  0.0025674922798484  0.0025674922798484
  0.6657400596562593  0.0025674922798484  0.0025674922798484
  0.1657400596562593  0.5025674922798484  0.0025674922798484
  0.6657400596562593  0.5025674922798484  0.0025674922798484
  0.1657400596562593  0.0025674922798484  0.5025674922798484
  0.6657400596562593  0.0025674922798484  0.5025674922798484
  0.1657400596562593  0.5025674922798484  0.5025674922798484
  0.6657400596562593  0.5025674922798484  0.5025674922798484
  0.0025674922798484  0.1657400596562593  0.0025674922798484
  0.5025674922798484  0.1657400596562593  0.0025674922798484
  0.0025674922798484  0.6657400596562593  0.0025674922798484
  0.5025674922798484  0.6657400596562593  0.0025674922798484
  0.0025674922798484  0.1657400596562593  0.5025674922798484
  0.5025674922798484  0.1657400596562593  0.5025674922798484
  0.0025674922798484  0.6657400596562593  0.5025674922798484
  0.5025674922798484  0.6657400596562593  0.5025674922798484
  0.3431110521861071  0.0971016261083660  0.0971016261083660
  0.8431110521861072  0.0971016261083660  0.0971016261083660
  0.3431110521861071  0.5971016261083660  0.0971016261083660
  0.8431110521861072  0.5971016261083660  0.0971016261083660
  0.3431110521861071  0.0971016261083660  0.5971016261083660
  0.8431110521861072  0.0971016261083660  0.5971016261083660
  0.3431110521861071  0.5971016261083660  0.5971016261083660
  0.8431110521861072  0.5971016261083660  0.5971016261083660
  0.0971016261083660  0.3431110521861071  0.0971016261083660
  0.5971016261083660  0.3431110521861071  0.0971016261083660
  0.0971016261083660  0.8431110521861072  0.0971016261083660
  0.5971016261083660  0.8431110521861072  0.0971016261083660
  0.0971016261083660  0.3431110521861071  0.5971016261083660
  0.5971016261083660  0.3431110521861071  0.5971016261083660
  0.0971016261083660  0.8431110521861072  0.5971016261083660
  0.5971016261083660  0.8431110521861072  0.5971016261083660
  0.4020197896969050  0.4020197896969050  0.1581864949647949
  0.9020197896969050  0.4020197896969050  0.1581864949647949
  0.4020197896969050  0.9020197896969050  0.1581864949647949
  0.9020197896969050  0.9020197896969050  0.1581864949647949
  0.4020197896969050  0.4020197896969050  0.6581864949647949
  0.9020197896969050  0.4020197896969050  0.6581864949647949
  0.4020197896969050  0.9020197896969050  0.6581864949647949
  0.9020197896969050  0.9020197896969050  0.6581864949647949
  0.0025674922798484  0.0025674922798484  0.1657400596562593
  0.5025674922798484  0.0025674922798484  0.1657400596562593
  0.0025674922798484  0.5025674922798484  0.1657400596562593
  0.5025674922798484  0.5025674922798484  0.1657400596562593
  0.0025674922798484  0.0025674922798484  0.6657400596562593
  0.5025674922798484  0.0025674922798484  0.6657400596562593
  0.0025674922798484  0.5025674922798484  0.6657400596562593
  0.5025674922798484  0.5025674922798484  0.6657400596562593
  0.2489260083326643  0.2489260083326643  0.2489260083326643
  0.7489260083326643  0.2489260083326643  0.2489260083326643
  0.2489260083326643  0.7489260083326643  0.2489260083326643
  0.7489260083326643  0.7489260083326643  0.2489260083326643
  0.2489260083326643  0.2489260083326643  0.7489260083326643
  0.7489260083326643  0.2489260083326643  0.7489260083326643
  0.2489260083326643  0.7489260083326643  0.7489260083326643
  0.7489260083326643  0.7489260083326643  0.7489260083326643
  0.4977668988681525  0.4977668988681525  0.3357303845671147
  0.9977668988681525  0.4977668988681525  0.3357303845671147
  0.4977668988681525  0.9977668988681525  0.3357303845671147
  0.9977668988681525  0.9977668988681525  0.3357303845671147
  0.4977668988681525  0.4977668988681525  0.8357303845671147
  0.9977668988681525  0.4977668988681525  0.8357303845671147
  0.4977668988681525  0.9977668988681525  0.8357303845671147
  0.9977668988681525  0.9977668988681525  0.8357303845671147
  0.0971016261083660  0.0971016261083660  0.3431110521861071
  0.5971016261083660  0.0971016261083660  0.3431110521861071
  0.0971016261083660  0.5971016261083660  0.3431110521861071
  0.5971016261083660  0.5971016261083660  0.3431110521861071
  0.0971016261083660  0.0971016261083660  0.8431110521861072
  0.5971016261083660  0.0971016261083660  0.8431110521861072
  0.0971016261083660  0.5971016261083660  0.8431110521861072
  0.5971016261083660  0.5971016261083660  0.8431110521861072
  0.4020197896969050  0.1581864949647949  0.4020197896969050
  0.9020197896969050  0.1581864949647949  0.4020197896969050
  0.4020197896969050  0.6581864949647949  0.4020197896969050
  0.9020197896969050  0.6581864949647949  0.4020197896969050
  0.4020197896969050  0.1581864949647949  0.9020197896969050
  0.9020197896969050  0.1581864949647949  0.9020197896969050
  0.4020197896969050  0.6581864949647949  0.9020197896969050
  0.9020197896969050  0.6581864949647949  0.9020197896969050
  0.1581864949647949  0.4020197896969050  0.4020197896969050
  0.6581864949647949  0.4020197896969050  0.4020197896969050
  0.1581864949647949  0.9020197896969050  0.4020197896969050
  0.6581864949647949  0.9020197896969050  0.4020197896969050
  0.1581864949647949  0.4020197896969050  0.9020197896969050
  0.6581864949647949  0.4020197896969050  0.9020197896969050
  0.1581864949647949  0.9020197896969050  0.9020197896969050
  0.6581864949647949  0.9020197896969050  0.9020197896969050
  0.4977668988681525  0.3357303845671147  0.4977668988681525
  0.9977668988681525  0.3357303845671147  0.4977668988681525
  0.4977668988681525  0.8357303845671147  0.4977668988681525
  0.9977668988681525  0.8357303845671147  0.4977668988681525
  0.4977668988681525  0.3357303845671147  0.9977668988681525
  0.9977668988681525  0.3357303845671147  0.9977668988681525
  0.4977668988681525  0.8357303845671147  0.9977668988681525
  0.9977668988681525  0.8357303845671147  0.9977668988681525
  0.3357303845671147  0.4977668988681525  0.4977668988681525
  0.8357303845671147  0.4977668988681525  0.4977668988681525
  0.3357303845671147  0.9977668988681525  0.4977668988681525
  0.8357303845671147  0.9977668988681525  0.4977668988681525
  0.3357303845671147  0.4977668988681525  0.9977668988681525
  0.8357303845671147  0.4977668988681525  0.9977668988681525
  0.3357303845671147  0.9977668988681525  0.9977668988681525
  0.8357303845671147  0.9977668988681525  0.9977668988681525
  0.3074536997213622  0.3074536997213622  0.3074536997213622
  0.8074536997213622  0.3074536997213622  0.3074536997213622
  0.3074536997213622  0.8074536997213622  0.3074536997213622
  0.8074536997213622  0.8074536997213622  0.3074536997213622
  0.3074536997213622  0.3074536997213622  0.8074536997213622
  0.8074536997213622  0.3074536997213622  0.8074536997213622
  0.3074536997213622  0.8074536997213622  0.8074536997213622
  0.8074536997213622  0.8074536997213622  0.8074536997213622
  0.1919404002151471  0.1919404002151471  0.1919404002151471
  0.6919404002151470  0.1919404002151471  0.1919404002151471
  0.1919404002151471  0.6919404002151470  0.1919404002151471
  0.6919404002151470  0.6919404002151470  0.1919404002151471
  0.1919404002151471  0.1919404002151471  0.6919404002151470
  0.6919404002151470  0.1919404002151471  0.6919404002151470
  0.1919404002151471  0.6919404002151470  0.6919404002151470
  0.6919404002151470  0.6919404002151470  0.6919404002151470
