Ti Be C                                 
   1.00000000000000     
     3.0688236496873871    0.0000369846957145   -0.0005574372321810
     1.5340442246178516    2.6585249689217809   -0.0003784602355694
     0.0012215917408558    0.0002545911698476    3.1921825360957272
   Be   C    Ti
     1     1     1
Direct
  0.4744331962693038  0.0571194793212392  0.6754758975416193
  0.8077652820579805  0.3905309291696305  0.6757734014092788
  0.1411383911617075  0.7235781361321287  0.1755110463901053
 
  0.00000000E+00  0.00000000E+00  0.00000000E+00
  0.00000000E+00  0.00000000E+00  0.00000000E+00
  0.00000000E+00  0.00000000E+00  0.00000000E+00
