generated by phonopy
   1.0
     6.1376472993747742    0.0000739693914290   -0.0011148744643620
     3.0680884492357032    5.3170499378435618   -0.0007569204711388
     0.0024431834817116    0.0005091823396952    6.3843650721914544
Be C Ti
   8    8    8
Direct
  0.2372165981346519  0.0285597396606196  0.3377379487708096
  0.7372165981346519  0.0285597396606196  0.3377379487708096
  0.2372165981346519  0.5285597396606196  0.3377379487708096
  0.7372165981346519  0.5285597396606196  0.3377379487708096
  0.2372165981346519  0.0285597396606196  0.8377379487708096
  0.7372165981346519  0.0285597396606196  0.8377379487708096
  0.2372165981346519  0.5285597396606196  0.8377379487708096
  0.7372165981346519  0.5285597396606196  0.8377379487708096
  0.4038826410289902  0.1952654645848153  0.3378867007046394
  0.9038826410289902  0.1952654645848153  0.3378867007046394
  0.4038826410289902  0.6952654645848153  0.3378867007046394
  0.9038826410289902  0.6952654645848153  0.3378867007046394
  0.4038826410289902  0.1952654645848153  0.8378867007046393
  0.9038826410289902  0.1952654645848153  0.8378867007046393
  0.4038826410289902  0.6952654645848153  0.8378867007046393
  0.9038826410289902  0.6952654645848153  0.8378867007046393
  0.0705691955808538  0.3617890680660644  0.0877555231950527
  0.5705691955808537  0.3617890680660644  0.0877555231950527
  0.0705691955808538  0.8617890680660644  0.0877555231950527
  0.5705691955808537  0.8617890680660644  0.0877555231950527
  0.0705691955808538  0.3617890680660644  0.5877555231950526
  0.5705691955808537  0.3617890680660644  0.5877555231950526
  0.0705691955808538  0.8617890680660644  0.5877555231950526
  0.5705691955808537  0.8617890680660644  0.5877555231950526
