Li Be B                                 
   1.00000000000000     
     3.7106904632723041    0.0000000000000000   -0.0067219010318057
     0.0000000000000000    3.0067349811778130    0.0000000000000000
    -0.8464906015748341    0.0000000000000000    5.6296819181602045
   B    Be   Li
     2     2     2
Direct
  0.8820565226804211  0.2500000000000000  0.4737870098679770
  0.1179434773195788  0.7500000000000000  0.5262129901320228
  0.3525694867936237  0.2500000000000000  0.3890205386979034
  0.6474305132063765  0.7500000000000000  0.6109794613020965
  0.7749232614997149  0.7500000000000000  0.1605802174985720
  0.2250767385002851  0.2500000000000000  0.8394197825014281
 
  0.00000000E+00  0.00000000E+00  0.00000000E+00
  0.00000000E+00  0.00000000E+00  0.00000000E+00
  0.00000000E+00  0.00000000E+00  0.00000000E+00
  0.00000000E+00  0.00000000E+00  0.00000000E+00
  0.00000000E+00  0.00000000E+00  0.00000000E+00
  0.00000000E+00  0.00000000E+00  0.00000000E+00
