B Be Mn                                 
   1.00000000000000     
     5.2494248860667021    0.0000000000000000    0.0000000000000000
     0.0000000000000000    5.2494248860667021   -0.0000000000000000
     0.0000000000000000    0.0000000000000000    2.8309720288072215
   B    Be   Mn
     4     2     4
Direct
  0.3801817965005488  0.1198182034994512 -0.0000000000000000
  0.8801817965005488  0.3801817965005488  0.0000000000000000
  0.1198182034994512  0.6198182034994512 -0.0000000000000000
  0.6198182034994512  0.8801817965005488  0.0000000000000000
  0.0000000000000000 -0.0000000000000000  0.0000000000000000
  0.5000000000000000  0.5000000000000000  0.0000000000000000
  0.6743860015767564  0.1743860015767565  0.5000000000000000
  0.1743860015767565  0.3256139984232436  0.5000000000000000
  0.8256139984232436  0.6743860015767564  0.5000000000000000
  0.3256139984232436  0.8256139984232436  0.5000000000000000
 
  0.00000000E+00  0.00000000E+00  0.00000000E+00
  0.00000000E+00  0.00000000E+00  0.00000000E+00
  0.00000000E+00  0.00000000E+00  0.00000000E+00
  0.00000000E+00  0.00000000E+00  0.00000000E+00
  0.00000000E+00  0.00000000E+00  0.00000000E+00
  0.00000000E+00  0.00000000E+00  0.00000000E+00
  0.00000000E+00  0.00000000E+00  0.00000000E+00
  0.00000000E+00  0.00000000E+00  0.00000000E+00
  0.00000000E+00  0.00000000E+00  0.00000000E+00
  0.00000000E+00  0.00000000E+00  0.00000000E+00
