Be B Cr
1.0
  2.050339965000  -3.555120593000   0.000000000000
  2.050339965000   3.555120593000   0.000000000000
  0.000000000000   0.000000000000   6.717251142000
B Be Cr
2 6 4
Direct
  0.329284188645   0.670715811355   0.250000000000
  0.670715811355   0.329284188645   0.750000000000
  0.500000000000   0.500000000000   0.000000000000
  0.329010687357   0.158479200692   0.250000000000
  0.841520799308   0.670989312643   0.250000000000
  0.500000000000   0.500000000000   0.500000000000
  0.158479200692   0.329010687357   0.750000000000
  0.670989312643   0.841520799308   0.750000000000
  0.830921347314   0.169078652686   0.063122631868
  0.830921347314   0.169078652686   0.436877368132
  0.169078652686   0.830921347314   0.563122631868
  0.169078652686   0.830921347314   0.936877368132
