Li Be N
1.0
  1.797875657083   1.038003994587   5.796035316000
 -1.797875657083   1.038003994587   5.796035316000
  0.000000000000  -2.076007989173   5.796035316000
Be Li N
1 4 2
Direct
  0.000000000000   0.000000000000   0.000000000000
  0.204426520671   0.204426520671   0.204426520671
  0.406579073140   0.406579073140   0.406579073140
  0.593420926860   0.593420926860   0.593420926860
  0.795573479329   0.795573479329   0.795573479329
  0.087868684753   0.087868684753   0.087868684753
  0.912131315247   0.912131315247   0.912131315247
