generated by phonopy
   1.0
     5.4780930985186265    3.1481063435898236    8.2949033119041662
    -5.4776499191898838    3.1494748082740318    8.2940928230523294
     0.0014051821728136   -6.2801462201909208    8.2880193950100161
B Be N
  96    8   16
Direct
  0.1626362655791324  0.9974624830383183  0.0076692098535004
  0.6626362655791325  0.9974624830383183  0.0076692098535004
  0.1626362655791324  0.4974624830383182  0.0076692098535004
  0.6626362655791325  0.4974624830383182  0.0076692098535004
  0.1626362655791324  0.9974624830383183  0.5076692098535005
  0.6626362655791325  0.9974624830383183  0.5076692098535005
  0.1626362655791324  0.4974624830383182  0.5076692098535005
  0.6626362655791325  0.4974624830383182  0.5076692098535005
  0.9973149157857851  0.1627262877120207  0.0077266884502694
  0.4973149157857851  0.1627262877120207  0.0077266884502694
  0.9973149157857851  0.6627262877120207  0.0077266884502694
  0.4973149157857851  0.6627262877120207  0.0077266884502694
  0.9973149157857851  0.1627262877120207  0.5077266884502694
  0.4973149157857851  0.1627262877120207  0.5077266884502694
  0.9973149157857851  0.6627262877120207  0.5077266884502694
  0.4973149157857851  0.6627262877120207  0.5077266884502694
  0.3347111104829743  0.0966635903477663  0.1035139108262148
  0.8347111104829743  0.0966635903477663  0.1035139108262148
  0.3347111104829743  0.5966635903477663  0.1035139108262148
  0.8347111104829743  0.5966635903477663  0.1035139108262148
  0.3347111104829743  0.0966635903477663  0.6035139108262148
  0.8347111104829743  0.0966635903477663  0.6035139108262148
  0.3347111104829743  0.5966635903477663  0.6035139108262148
  0.8347111104829743  0.5966635903477663  0.6035139108262148
  0.0966240878311110  0.3348967716285577  0.1035215994010326
  0.5966240878311110  0.3348967716285577  0.1035215994010326
  0.0966240878311110  0.8348967716285578  0.1035215994010326
  0.5966240878311110  0.8348967716285578  0.1035215994010326
  0.0966240878311110  0.3348967716285577  0.6035215994010327
  0.5966240878311110  0.3348967716285577  0.6035215994010327
  0.0966240878311110  0.8348967716285578  0.6035215994010327
  0.5966240878311110  0.8348967716285578  0.6035215994010327
  0.4003572392367611  0.4004690182147527  0.1703220616900644
  0.9003572392367611  0.4004690182147527  0.1703220616900644
  0.4003572392367611  0.9004690182147527  0.1703220616900644
  0.9003572392367611  0.9004690182147527  0.1703220616900644
  0.4003572392367611  0.4004690182147527  0.6703220616900644
  0.9003572392367611  0.4004690182147527  0.6703220616900644
  0.4003572392367611  0.9004690182147527  0.6703220616900644
  0.9003572392367611  0.9004690182147527  0.6703220616900644
  0.9995014837708127  0.9996096266510425  0.1711280224804642
  0.4995014837708127  0.9996096266510425  0.1711280224804642
  0.9995014837708127  0.4996096266510425  0.1711280224804642
  0.4995014837708127  0.4996096266510425  0.1711280224804642
  0.9995014837708127  0.9996096266510425  0.6711280224804642
  0.4995014837708127  0.9996096266510425  0.6711280224804642
  0.9995014837708127  0.4996096266510425  0.6711280224804642
  0.4995014837708127  0.4996096266510425  0.6711280224804642
  0.4963762691627412  0.4964592937910288  0.3393477922276537
  0.9963762691627412  0.4964592937910288  0.3393477922276537
  0.4963762691627412  0.9964592937910288  0.3393477922276537
  0.9963762691627412  0.9964592937910288  0.3393477922276537
  0.4963762691627412  0.4964592937910288  0.8393477922276537
  0.9963762691627412  0.4964592937910288  0.8393477922276537
  0.4963762691627412  0.9964592937910288  0.8393477922276537
  0.9963762691627412  0.9964592937910288  0.8393477922276537
  0.0988641582836345  0.0989522335006624  0.3424352315243113
  0.5988641582836345  0.0989522335006624  0.3424352315243113
  0.0988641582836345  0.5989522335006624  0.3424352315243113
  0.5988641582836345  0.5989522335006624  0.3424352315243113
  0.0988641582836345  0.0989522335006624  0.8424352315243113
  0.5988641582836345  0.0989522335006624  0.8424352315243113
  0.0988641582836345  0.5989522335006624  0.8424352315243113
  0.5988641582836345  0.5989522335006624  0.8424352315243113
  0.3975770301750031  0.1594329634787736  0.4032668367369276
  0.8975770301750031  0.1594329634787736  0.4032668367369276
  0.3975770301750031  0.6594329634787736  0.4032668367369276
  0.8975770301750031  0.6594329634787736  0.4032668367369276
  0.3975770301750031  0.1594329634787736  0.9032668367369276
  0.8975770301750031  0.1594329634787736  0.9032668367369276
  0.3975770301750031  0.6594329634787736  0.9032668367369276
  0.8975770301750031  0.6594329634787736  0.9032668367369276
  0.1593691793323178  0.3976266660687778  0.4032244776293112
  0.6593691793323178  0.3976266660687778  0.4032244776293112
  0.1593691793323178  0.8976266660687778  0.4032244776293112
  0.6593691793323178  0.8976266660687778  0.4032244776293112
  0.1593691793323178  0.3976266660687778  0.9032244776293112
  0.6593691793323178  0.3976266660687778  0.9032244776293112
  0.1593691793323178  0.8976266660687778  0.9032244776293112
  0.6593691793323178  0.8976266660687778  0.9032244776293112
  0.4950601758567203  0.3325946037685825  0.0039170105812343
  0.9950601758567204  0.3325946037685825  0.0039170105812343
  0.4950601758567203  0.8325946037685825  0.0039170105812343
  0.9950601758567204  0.8325946037685825  0.0039170105812343
  0.4950601758567203  0.3325946037685825  0.5039170105812343
  0.9950601758567204  0.3325946037685825  0.5039170105812343
  0.4950601758567203  0.8325946037685825  0.5039170105812343
  0.9950601758567204  0.8325946037685825  0.5039170105812343
  0.3324573808448706  0.4951691542065474  0.0038848566737191
  0.8324573808448705  0.4951691542065474  0.0038848566737191
  0.3324573808448706  0.9951691542065475  0.0038848566737191
  0.8324573808448705  0.9951691542065475  0.0038848566737191
  0.3324573808448706  0.4951691542065474  0.5038848566737191
  0.8324573808448705  0.4951691542065474  0.5038848566737191
  0.3324573808448706  0.9951691542065475  0.5038848566737191
  0.8324573808448705  0.9951691542065475  0.5038848566737191
  0.2844287309334675  0.2830206171159603  0.1813147780583927
  0.7844287309334674  0.2830206171159603  0.1813147780583927
  0.2844287309334675  0.7830206171159604  0.1813147780583927
  0.7844287309334674  0.7830206171159604  0.1813147780583927
  0.2844287309334675  0.2830206171159603  0.6813147780583928
  0.7844287309334674  0.2830206171159603  0.6813147780583928
  0.2844287309334675  0.7830206171159604  0.6813147780583928
  0.7844287309334674  0.7830206171159604  0.6813147780583928
  0.1887747219443008  0.1889269296190821  0.1937189766166022
  0.6887747219443008  0.1889269296190821  0.1937189766166022
  0.1887747219443008  0.6889269296190821  0.1937189766166022
  0.6887747219443008  0.6889269296190821  0.1937189766166022
  0.1887747219443008  0.1889269296190821  0.6937189766166022
  0.6887747219443008  0.1889269296190821  0.6937189766166022
  0.1887747219443008  0.6889269296190821  0.6937189766166022
  0.6887747219443008  0.6889269296190821  0.6937189766166022
  0.3070348182458461  0.3070313533108633  0.3128793873320790
  0.8070348182458460  0.3070313533108633  0.3128793873320790
  0.3070348182458461  0.8070313533108633  0.3128793873320790
  0.8070348182458460  0.8070313533108633  0.3128793873320790
  0.3070348182458461  0.3070313533108633  0.8128793873320790
  0.8070348182458460  0.3070313533108633  0.8128793873320790
  0.3070348182458461  0.8070313533108633  0.8128793873320790
  0.8070348182458460  0.8070313533108633  0.8128793873320790
