C Mn N                                  
   1.00000000000000     
     4.4794215758588471   -0.0022518556476533    0.0046598588269436
    -0.0140524853656057    4.6471333461774416    0.0003692374583051
    -0.0055237377373939   -0.0004109329130979    5.3005933314960298
   C    Mn   N 
     1     8     3
Direct
  0.0000052149867489  0.2500082831443100  0.6420349363321958
  0.7641306181919990  0.9262863381206670  0.1055228579517164
  0.2358750637263877  0.5737272183119471  0.1055168677182930
  0.2598633701870092  0.0759299219195294  0.3924468464308518
  0.7401561632409059  0.4240765321440215  0.3924419810658386
  0.2606335893616971  0.5810804123996752  0.6056647520054077
  0.7393768560153012  0.9189138665309640  0.6056600284152219
  0.7602162320820485  0.4261406769001335  0.8957449641014298
  0.2398024214193142  0.0738514591374169  0.8957398868234908
  0.5000134117927728  0.2499936274114275  0.1419329604431758
 -0.0000018406543297  0.7499874568712110  0.3569446050829841
  0.4999977193221473  0.7500066236007060  0.8603530964744006
 
  0.00000000E+00  0.00000000E+00  0.00000000E+00
  0.00000000E+00  0.00000000E+00  0.00000000E+00
  0.00000000E+00  0.00000000E+00  0.00000000E+00
  0.00000000E+00  0.00000000E+00  0.00000000E+00
  0.00000000E+00  0.00000000E+00  0.00000000E+00
  0.00000000E+00  0.00000000E+00  0.00000000E+00
  0.00000000E+00  0.00000000E+00  0.00000000E+00
  0.00000000E+00  0.00000000E+00  0.00000000E+00
  0.00000000E+00  0.00000000E+00  0.00000000E+00
  0.00000000E+00  0.00000000E+00  0.00000000E+00
  0.00000000E+00  0.00000000E+00  0.00000000E+00
  0.00000000E+00  0.00000000E+00  0.00000000E+00
