generated by phonopy
   1.0
     8.9588431517176943   -0.0045037112953066    0.0093197176538872
    -0.0281049707312114    9.2942666923548831    0.0007384749166102
    -0.0110474754747878   -0.0008218658261958   10.6011866629920597
C Mn N
   8   64   24
Direct
  0.0000026074933745  0.1250041415721550  0.3210174681660979
  0.5000026074933744  0.1250041415721550  0.3210174681660979
  0.0000026074933745  0.6250041415721550  0.3210174681660979
  0.5000026074933744  0.6250041415721550  0.3210174681660979
  0.0000026074933745  0.1250041415721550  0.8210174681660979
  0.5000026074933744  0.1250041415721550  0.8210174681660979
  0.0000026074933745  0.6250041415721550  0.8210174681660979
  0.5000026074933744  0.6250041415721550  0.8210174681660979
  0.3820653090959995  0.4631431690603335  0.0527614289758582
  0.8820653090959996  0.4631431690603335  0.0527614289758582
  0.3820653090959995  0.9631431690603335  0.0527614289758582
  0.8820653090959996  0.9631431690603335  0.0527614289758582
  0.3820653090959995  0.4631431690603335  0.5527614289758582
  0.8820653090959996  0.4631431690603335  0.5527614289758582
  0.3820653090959995  0.9631431690603335  0.5527614289758582
  0.8820653090959996  0.9631431690603335  0.5527614289758582
  0.1179375318631938  0.2868636091559735  0.0527584338591465
  0.6179375318631939  0.2868636091559735  0.0527584338591465
  0.1179375318631938  0.7868636091559735  0.0527584338591465
  0.6179375318631939  0.7868636091559735  0.0527584338591465
  0.1179375318631938  0.2868636091559735  0.5527584338591465
  0.6179375318631939  0.2868636091559735  0.5527584338591465
  0.1179375318631938  0.7868636091559735  0.5527584338591465
  0.6179375318631939  0.7868636091559735  0.5527584338591465
  0.1299316850935046  0.0379649609597647  0.1962234232154259
  0.6299316850935046  0.0379649609597647  0.1962234232154259
  0.1299316850935046  0.5379649609597646  0.1962234232154259
  0.6299316850935046  0.5379649609597646  0.1962234232154259
  0.1299316850935046  0.0379649609597647  0.6962234232154259
  0.6299316850935046  0.0379649609597647  0.6962234232154259
  0.1299316850935046  0.5379649609597646  0.6962234232154259
  0.6299316850935046  0.5379649609597646  0.6962234232154259
  0.3700780816204530  0.2120382660720108  0.1962209905329193
  0.8700780816204530  0.2120382660720108  0.1962209905329193
  0.3700780816204530  0.7120382660720108  0.1962209905329193
  0.8700780816204530  0.7120382660720108  0.1962209905329193
  0.3700780816204530  0.2120382660720108  0.6962209905329193
  0.8700780816204530  0.2120382660720108  0.6962209905329193
  0.3700780816204530  0.7120382660720108  0.6962209905329193
  0.8700780816204530  0.7120382660720108  0.6962209905329193
  0.1303167946808486  0.2905402061998376  0.3028323760027039
  0.6303167946808486  0.2905402061998376  0.3028323760027039
  0.1303167946808486  0.7905402061998377  0.3028323760027039
  0.6303167946808486  0.7905402061998377  0.3028323760027039
  0.1303167946808486  0.2905402061998376  0.8028323760027039
  0.6303167946808486  0.2905402061998376  0.8028323760027039
  0.1303167946808486  0.7905402061998377  0.8028323760027039
  0.6303167946808486  0.7905402061998377  0.8028323760027039
  0.3696884280076506  0.4594569332654820  0.3028300142076110
  0.8696884280076507  0.4594569332654820  0.3028300142076110
  0.3696884280076506  0.9594569332654820  0.3028300142076110
  0.8696884280076507  0.9594569332654820  0.3028300142076110
  0.3696884280076506  0.4594569332654820  0.8028300142076110
  0.8696884280076507  0.4594569332654820  0.8028300142076110
  0.3696884280076506  0.9594569332654820  0.8028300142076110
  0.8696884280076507  0.9594569332654820  0.8028300142076110
  0.3801081160410242  0.2130703384500668  0.4478724820507149
  0.8801081160410242  0.2130703384500668  0.4478724820507149
  0.3801081160410242  0.7130703384500667  0.4478724820507149
  0.8801081160410242  0.7130703384500667  0.4478724820507149
  0.3801081160410242  0.2130703384500668  0.9478724820507149
  0.8801081160410242  0.2130703384500668  0.9478724820507149
  0.3801081160410242  0.7130703384500667  0.9478724820507149
  0.8801081160410242  0.7130703384500667  0.9478724820507149
  0.1199012107096571  0.0369257295687085  0.4478699434117454
  0.6199012107096571  0.0369257295687085  0.4478699434117454
  0.1199012107096571  0.5369257295687084  0.4478699434117454
  0.6199012107096571  0.5369257295687084  0.4478699434117454
  0.1199012107096571  0.0369257295687085  0.9478699434117455
  0.6199012107096571  0.0369257295687085  0.9478699434117455
  0.1199012107096571  0.5369257295687084  0.9478699434117455
  0.6199012107096571  0.5369257295687084  0.9478699434117455
  0.2500067058963864  0.1249968137057137  0.0709664802215879
  0.7500067058963864  0.1249968137057137  0.0709664802215879
  0.2500067058963864  0.6249968137057138  0.0709664802215879
  0.7500067058963864  0.6249968137057138  0.0709664802215879
  0.2500067058963864  0.1249968137057137  0.5709664802215879
  0.7500067058963864  0.1249968137057137  0.5709664802215879
  0.2500067058963864  0.6249968137057138  0.5709664802215879
  0.7500067058963864  0.6249968137057138  0.5709664802215879
  0.9999990796728352  0.3749937284356055  0.1784723025414920
  0.4999990796728351  0.3749937284356055  0.1784723025414920
  0.9999990796728352  0.8749937284356055  0.1784723025414920
  0.4999990796728351  0.8749937284356055  0.1784723025414920
  0.9999990796728352  0.3749937284356055  0.6784723025414920
  0.4999990796728351  0.3749937284356055  0.6784723025414920
  0.9999990796728352  0.8749937284356055  0.6784723025414920
  0.4999990796728351  0.8749937284356055  0.6784723025414920
  0.2499988596610737  0.3750033118003530  0.4301765482372003
  0.7499988596610736  0.3750033118003530  0.4301765482372003
  0.2499988596610737  0.8750033118003531  0.4301765482372003
  0.7499988596610736  0.8750033118003531  0.4301765482372003
  0.2499988596610737  0.3750033118003530  0.9301765482372003
  0.7499988596610736  0.3750033118003530  0.9301765482372003
  0.2499988596610737  0.8750033118003531  0.9301765482372003
  0.7499988596610736  0.8750033118003531  0.9301765482372003
