Primitive Cell
  1.000000
    2.73234544967274    0.00000000000000    0.00000000000000
   -1.36617272483637    2.36628057133141    0.00000000000000
    0.00000000000000    0.00000000000000    7.38015566895817
  Cr  N 
   2   4
DIRECT
    0.6666666666666666    0.3333333333333333    0.2500000000000000    Cr1
    0.3333333333333334    0.6666666666666667    0.7500000000000000    Cr2
    0.0000000000000000    0.0000000000000000    0.0905473232484556     N1
    0.0000000000000000    0.0000000000000000    0.4094526767515444     N2
    0.0000000000000000    0.0000000000000000    0.5905473232484556     N3
    0.0000000000000000    0.0000000000000000    0.9094526767515444     N4
