Li Be N                                 
   1.00000000000000     
     1.8108174644494777    1.0454759505538471    5.8233240676898745
    -1.8108174644494777    1.0454759505538471    5.8233240676898745
     0.0000000000000000   -2.0909519011066822    5.8233240676898737
   Be   Li   N 
     1     4     2
Direct
  0.0000000000000000  0.0000000000000000  0.0000000000000000
  0.2039726766605592  0.2039726766605592  0.2039726766605592
  0.4069662866721643  0.4069662866721643  0.4069662866721643
  0.5930337133278356  0.5930337133278356  0.5930337133278356
  0.7960273233394407  0.7960273233394407  0.7960273233394407
  0.0878340439650731  0.0878340439650731  0.0878340439650731
  0.9121659560349269  0.9121659560349269  0.9121659560349269
 
  0.00000000E+00  0.00000000E+00  0.00000000E+00
  0.00000000E+00  0.00000000E+00  0.00000000E+00
  0.00000000E+00  0.00000000E+00  0.00000000E+00
  0.00000000E+00  0.00000000E+00  0.00000000E+00
  0.00000000E+00  0.00000000E+00  0.00000000E+00
  0.00000000E+00  0.00000000E+00  0.00000000E+00
  0.00000000E+00  0.00000000E+00  0.00000000E+00
