Mn Be                                   
   1.00000000000000     
     4.1422864372771961   -0.0000000000000000   -0.0000000000000000
    -2.0711432186385981    3.5873252844336729    0.0000000000000000
    -0.0000000000000000    0.0000000000000000    6.7462126972384562
   Be   Mn
     8     4
Direct
  0.0000000000000000  0.0000000000000000  0.0000000000000000
  0.3404083347024458  0.1702041673507255  0.2500000000000000
  0.8297958326492745  0.1702041673507255  0.2500000000000000
  0.8297958326492745  0.6595916652975542  0.2500000000000000
  0.0000000000000000  0.0000000000000000  0.5000000000000000
  0.1702041673507255  0.3404083347024458  0.7500000000000000
  0.1702041673507255  0.8297958326492745  0.7500000000000000
  0.6595916652975542  0.8297958326492745  0.7500000000000000
  0.3333333333330017  0.6666666666669983  0.0601285269013341
  0.3333333333330017  0.6666666666669983  0.4398714730986659
  0.6666666666669983  0.3333333333330017  0.5601285269013341
  0.6666666666669983  0.3333333333330017  0.9398714730986659
 
  0.00000000E+00  0.00000000E+00  0.00000000E+00
  0.00000000E+00  0.00000000E+00  0.00000000E+00
  0.00000000E+00  0.00000000E+00  0.00000000E+00
  0.00000000E+00  0.00000000E+00  0.00000000E+00
  0.00000000E+00  0.00000000E+00  0.00000000E+00
  0.00000000E+00  0.00000000E+00  0.00000000E+00
  0.00000000E+00  0.00000000E+00  0.00000000E+00
  0.00000000E+00  0.00000000E+00  0.00000000E+00
  0.00000000E+00  0.00000000E+00  0.00000000E+00
  0.00000000E+00  0.00000000E+00  0.00000000E+00
  0.00000000E+00  0.00000000E+00  0.00000000E+00
  0.00000000E+00  0.00000000E+00  0.00000000E+00
