generated by phonopy
   1.0
     8.2845728745543923    0.0000000000000000    0.0000000000000000
    -4.1422864372771961    7.1746505688673459    0.0000000000000000
     0.0000000000000000    0.0000000000000000   13.4924253944769124
Be Mn
  64   32
Direct
  0.0000000000000000  0.0000000000000000  0.0000000000000000
  0.5000000000000000  0.0000000000000000  0.0000000000000000
  0.0000000000000000  0.5000000000000000  0.0000000000000000
  0.5000000000000000  0.5000000000000000  0.0000000000000000
  0.0000000000000000  0.0000000000000000  0.5000000000000000
  0.5000000000000000  0.0000000000000000  0.5000000000000000
  0.0000000000000000  0.5000000000000000  0.5000000000000000
  0.5000000000000000  0.5000000000000000  0.5000000000000000
  0.1702041673512229  0.0851020836753627  0.1250000000000000
  0.6702041673512229  0.0851020836753627  0.1250000000000000
  0.1702041673512229  0.5851020836753628  0.1250000000000000
  0.6702041673512229  0.5851020836753628  0.1250000000000000
  0.1702041673512229  0.0851020836753627  0.6250000000000000
  0.6702041673512229  0.0851020836753627  0.6250000000000000
  0.1702041673512229  0.5851020836753628  0.6250000000000000
  0.6702041673512229  0.5851020836753628  0.6250000000000000
  0.4148979163246372  0.0851020836753627  0.1250000000000000
  0.9148979163246372  0.0851020836753627  0.1250000000000000
  0.4148979163246372  0.5851020836753628  0.1250000000000000
  0.9148979163246372  0.5851020836753628  0.1250000000000000
  0.4148979163246372  0.0851020836753627  0.6250000000000000
  0.9148979163246372  0.0851020836753627  0.6250000000000000
  0.4148979163246372  0.5851020836753628  0.6250000000000000
  0.9148979163246372  0.5851020836753628  0.6250000000000000
  0.4148979163246372  0.3297958326487771  0.1250000000000000
  0.9148979163246372  0.3297958326487771  0.1250000000000000
  0.4148979163246372  0.8297958326487771  0.1250000000000000
  0.9148979163246372  0.8297958326487771  0.1250000000000000
  0.4148979163246372  0.3297958326487771  0.6250000000000000
  0.9148979163246372  0.3297958326487771  0.6250000000000000
  0.4148979163246372  0.8297958326487771  0.6250000000000000
  0.9148979163246372  0.8297958326487771  0.6250000000000000
  0.0000000000000000  0.0000000000000000  0.2500000000000000
  0.5000000000000000  0.0000000000000000  0.2500000000000000
  0.0000000000000000  0.5000000000000000  0.2500000000000000
  0.5000000000000000  0.5000000000000000  0.2500000000000000
  0.0000000000000000  0.0000000000000000  0.7500000000000000
  0.5000000000000000  0.0000000000000000  0.7500000000000000
  0.0000000000000000  0.5000000000000000  0.7500000000000000
  0.5000000000000000  0.5000000000000000  0.7500000000000000
  0.0851020836753627  0.1702041673512229  0.3750000000000000
  0.5851020836753628  0.1702041673512229  0.3750000000000000
  0.0851020836753627  0.6702041673512229  0.3750000000000000
  0.5851020836753628  0.6702041673512229  0.3750000000000000
  0.0851020836753627  0.1702041673512229  0.8750000000000000
  0.5851020836753628  0.1702041673512229  0.8750000000000000
  0.0851020836753627  0.6702041673512229  0.8750000000000000
  0.5851020836753628  0.6702041673512229  0.8750000000000000
  0.0851020836753627  0.4148979163246372  0.3750000000000000
  0.5851020836753628  0.4148979163246372  0.3750000000000000
  0.0851020836753627  0.9148979163246372  0.3750000000000000
  0.5851020836753628  0.9148979163246372  0.3750000000000000
  0.0851020836753627  0.4148979163246372  0.8750000000000000
  0.5851020836753628  0.4148979163246372  0.8750000000000000
  0.0851020836753627  0.9148979163246372  0.8750000000000000
  0.5851020836753628  0.9148979163246372  0.8750000000000000
  0.3297958326487771  0.4148979163246372  0.3750000000000000
  0.8297958326487771  0.4148979163246372  0.3750000000000000
  0.3297958326487771  0.9148979163246372  0.3750000000000000
  0.8297958326487771  0.9148979163246372  0.3750000000000000
  0.3297958326487771  0.4148979163246372  0.8750000000000000
  0.8297958326487771  0.4148979163246372  0.8750000000000000
  0.3297958326487771  0.9148979163246372  0.8750000000000000
  0.8297958326487771  0.9148979163246372  0.8750000000000000
  0.1666666666665008  0.3333333333334991  0.0300642634506670
  0.6666666666665009  0.3333333333334991  0.0300642634506670
  0.1666666666665008  0.8333333333334991  0.0300642634506670
  0.6666666666665009  0.8333333333334991  0.0300642634506670
  0.1666666666665008  0.3333333333334991  0.5300642634506670
  0.6666666666665009  0.3333333333334991  0.5300642634506670
  0.1666666666665008  0.8333333333334991  0.5300642634506670
  0.6666666666665009  0.8333333333334991  0.5300642634506670
  0.1666666666665008  0.3333333333334991  0.2199357365493330
  0.6666666666665009  0.3333333333334991  0.2199357365493330
  0.1666666666665008  0.8333333333334991  0.2199357365493330
  0.6666666666665009  0.8333333333334991  0.2199357365493330
  0.1666666666665008  0.3333333333334991  0.7199357365493330
  0.6666666666665009  0.3333333333334991  0.7199357365493330
  0.1666666666665008  0.8333333333334991  0.7199357365493330
  0.6666666666665009  0.8333333333334991  0.7199357365493330
  0.3333333333334991  0.1666666666665008  0.2800642634506670
  0.8333333333334991  0.1666666666665008  0.2800642634506670
  0.3333333333334991  0.6666666666665009  0.2800642634506670
  0.8333333333334991  0.6666666666665009  0.2800642634506670
  0.3333333333334991  0.1666666666665008  0.7800642634506670
  0.8333333333334991  0.1666666666665008  0.7800642634506670
  0.3333333333334991  0.6666666666665009  0.7800642634506670
  0.8333333333334991  0.6666666666665009  0.7800642634506670
  0.3333333333334991  0.1666666666665008  0.4699357365493330
  0.8333333333334991  0.1666666666665008  0.4699357365493330
  0.3333333333334991  0.6666666666665009  0.4699357365493330
  0.8333333333334991  0.6666666666665009  0.4699357365493330
  0.3333333333334991  0.1666666666665008  0.9699357365493330
  0.8333333333334991  0.1666666666665008  0.9699357365493330
  0.3333333333334991  0.6666666666665009  0.9699357365493330
  0.8333333333334991  0.6666666666665009  0.9699357365493330
