B Li                                    
   1.00000000000000     
    -2.9242509577623368    5.1052330646428539    4.1658565541743382
     2.9242509577623368   -5.1052330646428539    4.1658565541743382
     2.9242509577623368    5.1052330646428539   -4.1658565541743382
   B    Li
    30     2
Direct
  0.7556163746351670  0.6538241952406577  0.1017921793945163
  0.6180151639723497  0.8263883302970750  0.1114670463414693
  0.0483220317521883  0.8999632446453267  0.1483587871078565
  0.6164066546924447  0.4513993562426384  0.1650072984498064
  0.3826811785928829  0.7119604888627766  0.1652139955100383
  0.9532535066462599  0.2880395111372235  0.1707206897300993
  0.3819848360276505  0.4934518823691126  0.2083731663247254
  0.0035992150079153  0.7535992150079153  0.2500000000000000
  0.7850787160443944  0.1736116697029251  0.2916268336752746
  0.6173188214071171  0.7825328169161535  0.3292793102699006
  0.0467464933537401  0.2174671830838465  0.3347860044899618
  0.7863920577928319  0.4513993562426384  0.3349927015501937
  0.2516044575374700  0.8999632446453267  0.3516412128921435
  0.2149212839556057  0.5065481176308874  0.3885329536585309
  0.0520320158461416  0.6538241952406577  0.3982078206054837
  0.9479679841538584  0.3461758047593492  0.6017921793945163
  0.7850787160443944  0.4934518823691126  0.6114670463414693
  0.7483955424625302  0.1000367553546734  0.6483587871078565
  0.2136079422071680  0.5486006437573616  0.6650072984498067
  0.9532535066462599  0.7825328169161535  0.6652139955100383
  0.3826811785928829  0.2174671830838465  0.6707206897300992
  0.2149212839556057  0.8263883302970750  0.7083731663247257
  0.9964007849920847  0.2464007849920847  0.7500000000000000
  0.6180151639723497  0.5065481176308874  0.7916268336752743
  0.0467464933537401  0.7119604888627766  0.8292793102699008
  0.6173188214071171  0.2880395111372235  0.8347860044899617
  0.3835933453075552  0.5486006437573616  0.8349927015501933
  0.9516779682478116  0.1000367553546734  0.8516412128921435
  0.3819848360276505  0.1736116697029251  0.8885329536585307
  0.2443836253648328  0.3461758047593492  0.8982078206054837
  0.4252778926022379  0.1752778926022378  0.2500000000000000
  0.5747221073977622  0.8247221073977622  0.7500000000000000
 
  0.00000000E+00  0.00000000E+00  0.00000000E+00
  0.00000000E+00  0.00000000E+00  0.00000000E+00
  0.00000000E+00  0.00000000E+00  0.00000000E+00
  0.00000000E+00  0.00000000E+00  0.00000000E+00
  0.00000000E+00  0.00000000E+00  0.00000000E+00
  0.00000000E+00  0.00000000E+00  0.00000000E+00
  0.00000000E+00  0.00000000E+00  0.00000000E+00
  0.00000000E+00  0.00000000E+00  0.00000000E+00
  0.00000000E+00  0.00000000E+00  0.00000000E+00
  0.00000000E+00  0.00000000E+00  0.00000000E+00
  0.00000000E+00  0.00000000E+00  0.00000000E+00
  0.00000000E+00  0.00000000E+00  0.00000000E+00
  0.00000000E+00  0.00000000E+00  0.00000000E+00
  0.00000000E+00  0.00000000E+00  0.00000000E+00
  0.00000000E+00  0.00000000E+00  0.00000000E+00
  0.00000000E+00  0.00000000E+00  0.00000000E+00
  0.00000000E+00  0.00000000E+00  0.00000000E+00
  0.00000000E+00  0.00000000E+00  0.00000000E+00
  0.00000000E+00  0.00000000E+00  0.00000000E+00
  0.00000000E+00  0.00000000E+00  0.00000000E+00
  0.00000000E+00  0.00000000E+00  0.00000000E+00
  0.00000000E+00  0.00000000E+00  0.00000000E+00
  0.00000000E+00  0.00000000E+00  0.00000000E+00
  0.00000000E+00  0.00000000E+00  0.00000000E+00
  0.00000000E+00  0.00000000E+00  0.00000000E+00
  0.00000000E+00  0.00000000E+00  0.00000000E+00
  0.00000000E+00  0.00000000E+00  0.00000000E+00
  0.00000000E+00  0.00000000E+00  0.00000000E+00
  0.00000000E+00  0.00000000E+00  0.00000000E+00
  0.00000000E+00  0.00000000E+00  0.00000000E+00
  0.00000000E+00  0.00000000E+00  0.00000000E+00
  0.00000000E+00  0.00000000E+00  0.00000000E+00
