generated by phonopy
   1.0
    -5.8485019155246736   10.2104661292857077    8.3317131083486764
     5.8485019155246736  -10.2104661292857077    8.3317131083486764
     5.8485019155246736   10.2104661292857077   -8.3317131083486764
B Li
 240   16
Direct
  0.3778081873175835  0.3269120976203289  0.0508960896972582
  0.8778081873175835  0.3269120976203289  0.0508960896972582
  0.3778081873175835  0.8269120976203288  0.0508960896972582
  0.8778081873175835  0.8269120976203288  0.0508960896972582
  0.3778081873175835  0.3269120976203289  0.5508960896972581
  0.8778081873175835  0.3269120976203289  0.5508960896972581
  0.3778081873175835  0.8269120976203288  0.5508960896972581
  0.8778081873175835  0.8269120976203288  0.5508960896972581
  0.3090075819861748  0.4131941651485375  0.0557335231707346
  0.8090075819861748  0.4131941651485375  0.0557335231707346
  0.3090075819861748  0.9131941651485376  0.0557335231707346
  0.8090075819861748  0.9131941651485376  0.0557335231707346
  0.3090075819861748  0.4131941651485375  0.5557335231707347
  0.8090075819861748  0.4131941651485375  0.5557335231707347
  0.3090075819861748  0.9131941651485376  0.5557335231707347
  0.8090075819861748  0.9131941651485376  0.5557335231707347
  0.0241610158760941  0.4499816223226634  0.0741793935539282
  0.5241610158760941  0.4499816223226634  0.0741793935539282
  0.0241610158760941  0.9499816223226634  0.0741793935539282
  0.5241610158760941  0.9499816223226634  0.0741793935539282
  0.0241610158760941  0.4499816223226634  0.5741793935539282
  0.5241610158760941  0.4499816223226634  0.5741793935539282
  0.0241610158760941  0.9499816223226634  0.5741793935539282
  0.5241610158760941  0.9499816223226634  0.5741793935539282
  0.3082033273462224  0.2256996781213192  0.0825036492249032
  0.8082033273462224  0.2256996781213192  0.0825036492249032
  0.3082033273462224  0.7256996781213192  0.0825036492249032
  0.8082033273462224  0.7256996781213192  0.0825036492249032
  0.3082033273462224  0.2256996781213192  0.5825036492249032
  0.8082033273462224  0.2256996781213192  0.5825036492249032
  0.3082033273462224  0.7256996781213192  0.5825036492249032
  0.8082033273462224  0.7256996781213192  0.5825036492249032
  0.1913405892964415  0.3559802444313883  0.0826069977550191
  0.6913405892964415  0.3559802444313883  0.0826069977550191
  0.1913405892964415  0.8559802444313883  0.0826069977550191
  0.6913405892964415  0.8559802444313883  0.0826069977550191
  0.1913405892964415  0.3559802444313883  0.5826069977550191
  0.6913405892964415  0.3559802444313883  0.5826069977550191
  0.1913405892964415  0.8559802444313883  0.5826069977550191
  0.6913405892964415  0.8559802444313883  0.5826069977550191
  0.4766267533231299  0.1440197555686117  0.0853603448650496
  0.9766267533231299  0.1440197555686117  0.0853603448650496
  0.4766267533231299  0.6440197555686118  0.0853603448650496
  0.9766267533231299  0.6440197555686118  0.0853603448650496
  0.4766267533231299  0.1440197555686117  0.5853603448650496
  0.9766267533231299  0.1440197555686117  0.5853603448650496
  0.4766267533231299  0.6440197555686118  0.5853603448650496
  0.9766267533231299  0.6440197555686118  0.5853603448650496
  0.1909924180138252  0.2467259411845563  0.1041865831623627
  0.6909924180138253  0.2467259411845563  0.1041865831623627
  0.1909924180138252  0.7467259411845563  0.1041865831623627
  0.6909924180138253  0.7467259411845563  0.1041865831623627
  0.1909924180138252  0.2467259411845563  0.6041865831623627
  0.6909924180138253  0.2467259411845563  0.6041865831623627
  0.1909924180138252  0.7467259411845563  0.6041865831623627
  0.6909924180138253  0.7467259411845563  0.6041865831623627
  0.0017996075039577  0.3767996075039576  0.1250000000000000
  0.5017996075039577  0.3767996075039576  0.1250000000000000
  0.0017996075039577  0.8767996075039577  0.1250000000000000
  0.5017996075039577  0.8767996075039577  0.1250000000000000
  0.0017996075039577  0.3767996075039576  0.6250000000000000
  0.5017996075039577  0.3767996075039576  0.6250000000000000
  0.0017996075039577  0.8767996075039577  0.6250000000000000
  0.5017996075039577  0.8767996075039577  0.6250000000000000
  0.3925393580221972  0.0868058348514626  0.1458134168376373
  0.8925393580221972  0.0868058348514626  0.1458134168376373
  0.3925393580221972  0.5868058348514625  0.1458134168376373
  0.8925393580221972  0.5868058348514625  0.1458134168376373
  0.3925393580221972  0.0868058348514626  0.6458134168376373
  0.8925393580221972  0.0868058348514626  0.6458134168376373
  0.3925393580221972  0.5868058348514625  0.6458134168376373
  0.8925393580221972  0.5868058348514625  0.6458134168376373
  0.3086594107035586  0.3912664084580768  0.1646396551349503
  0.8086594107035585  0.3912664084580768  0.1646396551349503
  0.3086594107035586  0.8912664084580768  0.1646396551349503
  0.8086594107035585  0.8912664084580768  0.1646396551349503
  0.3086594107035586  0.3912664084580768  0.6646396551349503
  0.8086594107035585  0.3912664084580768  0.6646396551349503
  0.3086594107035586  0.8912664084580768  0.6646396551349503
  0.8086594107035585  0.8912664084580768  0.6646396551349503
  0.0233732466768700  0.1087335915419232  0.1673930022449809
  0.5233732466768700  0.1087335915419232  0.1673930022449809
  0.0233732466768700  0.6087335915419232  0.1673930022449809
  0.5233732466768700  0.6087335915419232  0.1673930022449809
  0.0233732466768700  0.1087335915419232  0.6673930022449809
  0.5233732466768700  0.1087335915419232  0.6673930022449809
  0.0233732466768700  0.6087335915419232  0.6673930022449809
  0.5233732466768700  0.6087335915419232  0.6673930022449809
  0.3931960288964160  0.2256996781213192  0.1674963507750969
  0.8931960288964160  0.2256996781213192  0.1674963507750969
  0.3931960288964160  0.7256996781213192  0.1674963507750969
  0.8931960288964160  0.7256996781213192  0.1674963507750969
  0.3931960288964160  0.2256996781213192  0.6674963507750968
  0.8931960288964160  0.2256996781213192  0.6674963507750968
  0.3931960288964160  0.7256996781213192  0.6674963507750968
  0.8931960288964160  0.7256996781213192  0.6674963507750968
  0.1258022287687350  0.4499816223226634  0.1758206064460718
  0.6258022287687350  0.4499816223226634  0.1758206064460718
  0.1258022287687350  0.9499816223226634  0.1758206064460718
  0.6258022287687350  0.9499816223226634  0.1758206064460718
  0.1258022287687350  0.4499816223226634  0.6758206064460718
  0.6258022287687350  0.4499816223226634  0.6758206064460718
  0.1258022287687350  0.9499816223226634  0.6758206064460718
  0.6258022287687350  0.9499816223226634  0.6758206064460718
  0.1074606419778028  0.2532740588154437  0.1942664768292655
  0.6074606419778028  0.2532740588154437  0.1942664768292655
  0.1074606419778028  0.7532740588154436  0.1942664768292655
  0.6074606419778028  0.7532740588154436  0.1942664768292655
  0.1074606419778028  0.2532740588154437  0.6942664768292655
  0.6074606419778028  0.2532740588154437  0.6942664768292655
  0.1074606419778028  0.7532740588154436  0.6942664768292655
  0.6074606419778028  0.7532740588154436  0.6942664768292655
  0.0260160079230708  0.3269120976203289  0.1991039103027419
  0.5260160079230708  0.3269120976203289  0.1991039103027419
  0.0260160079230708  0.8269120976203288  0.1991039103027419
  0.5260160079230708  0.8269120976203288  0.1991039103027419
  0.0260160079230708  0.3269120976203289  0.6991039103027419
  0.5260160079230708  0.3269120976203289  0.6991039103027419
  0.0260160079230708  0.8269120976203288  0.6991039103027419
  0.5260160079230708  0.8269120976203288  0.6991039103027419
  0.4739839920769292  0.1730879023796746  0.3008960896972582
  0.9739839920769292  0.1730879023796746  0.3008960896972582
  0.4739839920769292  0.6730879023796746  0.3008960896972582
  0.9739839920769292  0.6730879023796746  0.3008960896972582
  0.4739839920769292  0.1730879023796746  0.8008960896972581
  0.9739839920769292  0.1730879023796746  0.8008960896972581
  0.4739839920769292  0.6730879023796746  0.8008960896972581
  0.9739839920769292  0.6730879023796746  0.8008960896972581
  0.3925393580221972  0.2467259411845563  0.3057335231707347
  0.8925393580221972  0.2467259411845563  0.3057335231707347
  0.3925393580221972  0.7467259411845563  0.3057335231707347
  0.8925393580221972  0.7467259411845563  0.3057335231707347
  0.3925393580221972  0.2467259411845563  0.8057335231707347
  0.8925393580221972  0.2467259411845563  0.8057335231707347
  0.3925393580221972  0.7467259411845563  0.8057335231707347
  0.8925393580221972  0.7467259411845563  0.8057335231707347
  0.3741977712312651  0.0500183776773367  0.3241793935539283
  0.8741977712312651  0.0500183776773367  0.3241793935539283
  0.3741977712312651  0.5500183776773367  0.3241793935539283
  0.8741977712312651  0.5500183776773367  0.3241793935539283
  0.3741977712312651  0.0500183776773367  0.8241793935539283
  0.8741977712312651  0.0500183776773367  0.8241793935539283
  0.3741977712312651  0.5500183776773367  0.8241793935539283
  0.8741977712312651  0.5500183776773367  0.8241793935539283
  0.1068039711035840  0.2743003218786808  0.3325036492249033
  0.6068039711035840  0.2743003218786808  0.3325036492249033
  0.1068039711035840  0.7743003218786808  0.3325036492249033
  0.6068039711035840  0.7743003218786808  0.3325036492249033
  0.1068039711035840  0.2743003218786808  0.8325036492249034
  0.6068039711035840  0.2743003218786808  0.8325036492249034
  0.1068039711035840  0.7743003218786808  0.8325036492249034
  0.6068039711035840  0.7743003218786808  0.8325036492249034
  0.4766267533231299  0.3912664084580768  0.3326069977550192
  0.9766267533231299  0.3912664084580768  0.3326069977550192
  0.4766267533231299  0.8912664084580768  0.3326069977550192
  0.9766267533231299  0.8912664084580768  0.3326069977550192
  0.4766267533231299  0.3912664084580768  0.8326069977550192
  0.9766267533231299  0.3912664084580768  0.8326069977550192
  0.4766267533231299  0.8912664084580768  0.8326069977550192
  0.9766267533231299  0.8912664084580768  0.8326069977550192
  0.1913405892964415  0.1087335915419232  0.3353603448650496
  0.6913405892964415  0.1087335915419232  0.3353603448650496
  0.1913405892964415  0.6087335915419232  0.3353603448650496
  0.6913405892964415  0.6087335915419232  0.3353603448650496
  0.1913405892964415  0.1087335915419232  0.8353603448650496
  0.6913405892964415  0.1087335915419232  0.8353603448650496
  0.1913405892964415  0.6087335915419232  0.8353603448650496
  0.6913405892964415  0.6087335915419232  0.8353603448650496
  0.1074606419778028  0.4131941651485375  0.3541865831623628
  0.6074606419778028  0.4131941651485375  0.3541865831623628
  0.1074606419778028  0.9131941651485376  0.3541865831623628
  0.6074606419778028  0.9131941651485376  0.3541865831623628
  0.1074606419778028  0.4131941651485375  0.8541865831623628
  0.6074606419778028  0.4131941651485375  0.8541865831623628
  0.1074606419778028  0.9131941651485376  0.8541865831623628
  0.6074606419778028  0.9131941651485376  0.8541865831623628
  0.4982003924960424  0.1232003924960424  0.3750000000000000
  0.9982003924960423  0.1232003924960424  0.3750000000000000
  0.4982003924960424  0.6232003924960423  0.3750000000000000
  0.9982003924960423  0.6232003924960423  0.3750000000000000
  0.4982003924960424  0.1232003924960424  0.8750000000000000
  0.9982003924960423  0.1232003924960424  0.8750000000000000
  0.4982003924960424  0.6232003924960423  0.8750000000000000
  0.9982003924960423  0.6232003924960423  0.8750000000000000
  0.3090075819861748  0.2532740588154437  0.3958134168376372
  0.8090075819861748  0.2532740588154437  0.3958134168376372
  0.3090075819861748  0.7532740588154436  0.3958134168376372
  0.8090075819861748  0.7532740588154436  0.3958134168376372
  0.3090075819861748  0.2532740588154437  0.8958134168376372
  0.8090075819861748  0.2532740588154437  0.8958134168376372
  0.3090075819861748  0.7532740588154436  0.8958134168376372
  0.8090075819861748  0.7532740588154436  0.8958134168376372
  0.0233732466768700  0.3559802444313883  0.4146396551349504
  0.5233732466768700  0.3559802444313883  0.4146396551349504
  0.0233732466768700  0.8559802444313883  0.4146396551349504
  0.5233732466768700  0.8559802444313883  0.4146396551349504
  0.0233732466768700  0.3559802444313883  0.9146396551349504
  0.5233732466768700  0.3559802444313883  0.9146396551349504
  0.0233732466768700  0.8559802444313883  0.9146396551349504
  0.5233732466768700  0.8559802444313883  0.9146396551349504
  0.3086594107035586  0.1440197555686117  0.4173930022449808
  0.8086594107035585  0.1440197555686117  0.4173930022449808
  0.3086594107035586  0.6440197555686118  0.4173930022449808
  0.8086594107035585  0.6440197555686118  0.4173930022449808
  0.3086594107035586  0.1440197555686117  0.9173930022449808
  0.8086594107035585  0.1440197555686117  0.9173930022449808
  0.3086594107035586  0.6440197555686118  0.9173930022449808
  0.8086594107035585  0.6440197555686118  0.9173930022449808
  0.1917966726537776  0.2743003218786808  0.4174963507750967
  0.6917966726537776  0.2743003218786808  0.4174963507750967
  0.1917966726537776  0.7743003218786808  0.4174963507750967
  0.6917966726537776  0.7743003218786808  0.4174963507750967
  0.1917966726537776  0.2743003218786808  0.9174963507750966
  0.6917966726537776  0.2743003218786808  0.9174963507750966
  0.1917966726537776  0.7743003218786808  0.9174963507750966
  0.6917966726537776  0.7743003218786808  0.9174963507750966
  0.4758389841239058  0.0500183776773367  0.4258206064460717
  0.9758389841239058  0.0500183776773367  0.4258206064460717
  0.4758389841239058  0.5500183776773367  0.4258206064460717
  0.9758389841239058  0.5500183776773367  0.4258206064460717
  0.4758389841239058  0.0500183776773367  0.9258206064460717
  0.9758389841239058  0.0500183776773367  0.9258206064460717
  0.4758389841239058  0.5500183776773367  0.9258206064460717
  0.9758389841239058  0.5500183776773367  0.9258206064460717
  0.1909924180138252  0.0868058348514626  0.4442664768292653
  0.6909924180138253  0.0868058348514626  0.4442664768292653
  0.1909924180138252  0.5868058348514625  0.4442664768292653
  0.6909924180138253  0.5868058348514625  0.4442664768292653
  0.1909924180138252  0.0868058348514626  0.9442664768292653
  0.6909924180138253  0.0868058348514626  0.9442664768292653
  0.1909924180138252  0.5868058348514625  0.9442664768292653
  0.6909924180138253  0.5868058348514625  0.9442664768292653
  0.1221918126824164  0.1730879023796746  0.4491039103027418
  0.6221918126824164  0.1730879023796746  0.4491039103027418
  0.1221918126824164  0.6730879023796746  0.4491039103027418
  0.6221918126824164  0.6730879023796746  0.4491039103027418
  0.1221918126824164  0.1730879023796746  0.9491039103027419
  0.6221918126824164  0.1730879023796746  0.9491039103027419
  0.1221918126824164  0.6730879023796746  0.9491039103027419
  0.6221918126824164  0.6730879023796746  0.9491039103027419
  0.2126389463011190  0.0876389463011189  0.1250000000000000
  0.7126389463011189  0.0876389463011189  0.1250000000000000
  0.2126389463011190  0.5876389463011189  0.1250000000000000
  0.7126389463011189  0.5876389463011189  0.1250000000000000
  0.2126389463011190  0.0876389463011189  0.6250000000000000
  0.7126389463011189  0.0876389463011189  0.6250000000000000
  0.2126389463011190  0.5876389463011189  0.6250000000000000
  0.7126389463011189  0.5876389463011189  0.6250000000000000
  0.2873610536988811  0.4123610536988811  0.3750000000000000
  0.7873610536988811  0.4123610536988811  0.3750000000000000
  0.2873610536988811  0.9123610536988811  0.3750000000000000
  0.7873610536988811  0.9123610536988811  0.3750000000000000
  0.2873610536988811  0.4123610536988811  0.8750000000000000
  0.7873610536988811  0.4123610536988811  0.8750000000000000
  0.2873610536988811  0.9123610536988811  0.8750000000000000
  0.7873610536988811  0.9123610536988811  0.8750000000000000
