Primitive Cell
  1.000000
    2.78637802941931    1.60871610534930    4.08835126426628
   -2.78637802941931    1.60871610534930    4.08835126426628
    0.00000000000000   -3.21743221069859    4.08835126426628
  B   C   N 
  13   1   1
DIRECT
    0.3314801193125185    0.0051349845596969    0.0051349845596967     B1
    0.0051349845596969    0.3314801193125185    0.0051349845596967     B2
    0.6862221043722142    0.1942032522167322    0.1942032522167322     B3
    0.1942032522167322    0.6862221043722142    0.1942032522167322     B4
    0.8040395793938102    0.8040395793938102    0.3163729899295900     B5
    0.0051349845596969    0.0051349845596969    0.3314801193125185     B6
    0.4978520166653285    0.4978520166653285    0.4978520166653286     B7
    0.9955337977363050    0.9955337977363050    0.6714607691342294     B8
    0.1942032522167322    0.1942032522167322    0.6862221043722142     B9
    0.8040395793938102    0.3163729899295900    0.8040395793938101    B10
    0.3163729899295900    0.8040395793938102    0.8040395793938101    B11
    0.9955337977363050    0.6714607691342294    0.9955337977363050    B12
    0.6714607691342294    0.9955337977363050    0.9955337977363050    B13
    0.6149073994427245    0.6149073994427245    0.6149073994427245     C1
    0.3838808004302942    0.3838808004302942    0.3838808004302943     N1
