Ti C                                    
   1.00000000000000     
     2.6642153735221239   -4.6022293639233709   -0.0001491967530674
     2.6642153735221239    4.6022293639233709   -0.0001491967530674
    -1.7872024613533088    0.0000000000000000    5.0166629164995076
   C    Ti
     5     6
Direct
  0.6666361533809524  0.3333638466190477 -0.0000000000000000
  0.3333638466190477  0.6666361533809524 -0.0000000000000000
  0.8337039599237863  0.1662960400762138  0.5000000000000000
  0.5000000000000000  0.5000000000000000  0.5000000000000000
  0.1662960400762138  0.8337039599237863  0.5000000000000000
  0.4355728398627446  0.0857133826918823  0.2543216207081235
  0.0857133826918823  0.4355728398627446  0.2543216207081235
  0.7376323601206811  0.7376323601206811  0.2628564891695168
  0.2623676398793189  0.2623676398793189  0.7371435108304831
  0.9142866173081177  0.5644271601372555  0.7456783792918765
  0.5644271601372555  0.9142866173081177  0.7456783792918765
 
  0.00000000E+00  0.00000000E+00  0.00000000E+00
  0.00000000E+00  0.00000000E+00  0.00000000E+00
  0.00000000E+00  0.00000000E+00  0.00000000E+00
  0.00000000E+00  0.00000000E+00  0.00000000E+00
  0.00000000E+00  0.00000000E+00  0.00000000E+00
  0.00000000E+00  0.00000000E+00  0.00000000E+00
  0.00000000E+00  0.00000000E+00  0.00000000E+00
  0.00000000E+00  0.00000000E+00  0.00000000E+00
  0.00000000E+00  0.00000000E+00  0.00000000E+00
  0.00000000E+00  0.00000000E+00  0.00000000E+00
  0.00000000E+00  0.00000000E+00  0.00000000E+00
