Primitive Cell
  1.000000
    5.19931495520269    0.00000000000000    0.00000000000000
    2.35390350433092    4.65167628741931    0.00000000000000
    2.35537996424345    1.42578466261514    4.42726754838677
  B   Be  N 
  12   1   2
DIRECT
    0.9846615802929991    0.0050750339233636    0.6747274688417351     B1
    0.9845466230994613    0.6745474245759587    0.0053701684284297     B2
    0.7929721783475705    0.8066728193044674    0.3305777790340515     B3
    0.7929568011979347    0.3302064567428845    0.8067518243377781     B4
    0.6593558766198712    0.1990619635704948    0.1992855215264777     B5
    0.6577439550390713    0.0007807466979151    0.0009970324583746     B6
    0.3213044155446927    0.0070814124179425    0.0072474616745175     B7
    0.3151295369513774    0.8020955329986752    0.8022716834327310     B8
    0.1934663265261449    0.6811340730424531    0.2048459396499937     B9
    0.1935510447413775    0.2047466678624444    0.6812616413353644    B10
    0.9921659788375314    0.3348107924628351    0.0098796482865594    B11
    0.9922302866525617    0.0096616915869052    0.3350852383102588    B12
    0.6373704438832144    0.4339587657680793    0.4311425381330651    Be1
    0.6125620467667955    0.6221461407618358    0.6224505561113984     N1
    0.3742412253358421    0.3859372933782735    0.3859303635083078     N2
