generated by phonopy
   1.0
     3.6216349288989553    2.0909519011076942   11.6466481353797491
    -3.6216349288989553    2.0909519011076942   11.6466481353797491
     0.0000000000000000   -4.1819038022133643   11.6466481353797473
Be Li N
   8   32   16
Direct
  0.0000000000000000  0.0000000000000000  0.0000000000000000
  0.5000000000000000  0.0000000000000000  0.0000000000000000
  0.0000000000000000  0.5000000000000000  0.0000000000000000
  0.5000000000000000  0.5000000000000000  0.0000000000000000
  0.0000000000000000  0.0000000000000000  0.5000000000000000
  0.5000000000000000  0.0000000000000000  0.5000000000000000
  0.0000000000000000  0.5000000000000000  0.5000000000000000
  0.5000000000000000  0.5000000000000000  0.5000000000000000
  0.1019863383302796  0.1019863383302796  0.1019863383302796
  0.6019863383302796  0.1019863383302796  0.1019863383302796
  0.1019863383302796  0.6019863383302796  0.1019863383302796
  0.6019863383302796  0.6019863383302796  0.1019863383302796
  0.1019863383302796  0.1019863383302796  0.6019863383302796
  0.6019863383302796  0.1019863383302796  0.6019863383302796
  0.1019863383302796  0.6019863383302796  0.6019863383302796
  0.6019863383302796  0.6019863383302796  0.6019863383302796
  0.2034831433360821  0.2034831433360821  0.2034831433360821
  0.7034831433360822  0.2034831433360821  0.2034831433360821
  0.2034831433360821  0.7034831433360822  0.2034831433360821
  0.7034831433360822  0.7034831433360822  0.2034831433360821
  0.2034831433360821  0.2034831433360821  0.7034831433360822
  0.7034831433360822  0.2034831433360821  0.7034831433360822
  0.2034831433360821  0.7034831433360822  0.7034831433360822
  0.7034831433360822  0.7034831433360822  0.7034831433360822
  0.2965168566639178  0.2965168566639178  0.2965168566639178
  0.7965168566639178  0.2965168566639178  0.2965168566639178
  0.2965168566639178  0.7965168566639178  0.2965168566639178
  0.7965168566639178  0.7965168566639178  0.2965168566639178
  0.2965168566639178  0.2965168566639178  0.7965168566639178
  0.7965168566639178  0.2965168566639178  0.7965168566639178
  0.2965168566639178  0.7965168566639178  0.7965168566639178
  0.7965168566639178  0.7965168566639178  0.7965168566639178
  0.3980136616697204  0.3980136616697204  0.3980136616697204
  0.8980136616697203  0.3980136616697204  0.3980136616697204
  0.3980136616697204  0.8980136616697203  0.3980136616697204
  0.8980136616697203  0.8980136616697203  0.3980136616697204
  0.3980136616697204  0.3980136616697204  0.8980136616697203
  0.8980136616697203  0.3980136616697204  0.8980136616697203
  0.3980136616697204  0.8980136616697203  0.8980136616697203
  0.8980136616697203  0.8980136616697203  0.8980136616697203
  0.0439170219825366  0.0439170219825366  0.0439170219825366
  0.5439170219825366  0.0439170219825366  0.0439170219825366
  0.0439170219825366  0.5439170219825366  0.0439170219825366
  0.5439170219825366  0.5439170219825366  0.0439170219825366
  0.0439170219825366  0.0439170219825366  0.5439170219825366
  0.5439170219825366  0.0439170219825366  0.5439170219825366
  0.0439170219825366  0.5439170219825366  0.5439170219825366
  0.5439170219825366  0.5439170219825366  0.5439170219825366
  0.4560829780174634  0.4560829780174634  0.4560829780174634
  0.9560829780174634  0.4560829780174634  0.4560829780174634
  0.4560829780174634  0.9560829780174634  0.4560829780174634
  0.9560829780174634  0.9560829780174634  0.4560829780174634
  0.4560829780174634  0.4560829780174634  0.9560829780174634
  0.9560829780174634  0.4560829780174634  0.9560829780174634
  0.4560829780174634  0.9560829780174634  0.9560829780174634
  0.9560829780174634  0.9560829780174634  0.9560829780174634
