Be Mn                                   
   1.00000000000000     
    -1.3637213831979433    1.3637213831979433    3.9039569770950711
     1.3637213831979433   -1.3637213831979433    3.9039569770950711
     1.3637213831979433    1.3637213831979433   -3.9039569770950711
   Be   Mn
     1     2
Direct
 -0.0000000000000000 -0.0000000000000000 -0.0000000000000000
  0.3292078928765835  0.3292078928765835  0.0000000000000000
  0.6707921071234164  0.6707921071234164  0.0000000000000000
 
  0.00000000E+00  0.00000000E+00  0.00000000E+00
  0.00000000E+00  0.00000000E+00  0.00000000E+00
  0.00000000E+00  0.00000000E+00  0.00000000E+00
