Global Parameters
  ISTART =  0            (Read existing wavefunction; if there)
  LREAL  =  .FALSE.          (Projection operators: automatic)
  PREC   =  Accurate        (Precision level)
  ENCUT  = 550
  LWAVE  = .FALSE.        (Write WAVECAR or not)
  LCHARG = .FALSE.        (Write CHGCAR or not)
  ADDGRID= .TRUE.        (Increase grid; helps GGA convergence)
  ISPIN  = 1

Electronic Relaxation
  ISMEAR =  0           (Gaussian smearing: 0; metals:1)
  SIGMA  =  0.03
  NELM   =  200           (Max electronic SCF steps)
  NELMIN =  4            (Min electronic SCF steps)
  EDIFF  =  1E-06        (SCF energy convergence; in eV)

Ionic Relaxation
  NSW    =  200          (Max ionic steps)
  IBRION =  2            (Algorithm: 0-MD; 1-Quasi-New; 2-CG)
  ISIF   =  3           (Stress/relaxation: 2-Ions, 3-Shape/Ions/V, 4-Shape/Ions)
  EDIFFG = -1E-02      (Ionic convergence; eV/AA)

Performance optimization
  NCORE  = 4


KSPACING = 0.2
