Be B Cr
1.0
  6.781887821000   0.000000000000   0.000000000000
  0.000000000000   2.075091150000   3.601857532000
  0.000000000000  -2.075091150000   3.601857532000
B Be Cr
1 7 4
Direct
  0.000000000000   0.828673808856   0.828673808856
  0.500000000000   0.170324615716   0.170324615716
  0.500000000000   0.660445543687   0.171358594423
  0.000000000000   0.829009474115   0.343527185783
  0.500000000000   0.171358594423   0.660445543687
  0.000000000000   0.343527185783   0.829009474115
  0.246106990274   0.996430305228   0.996430305228
  0.753893009726   0.996430305228   0.996430305228
  0.182944636176   0.332557573241   0.332557573241
  0.817055363824   0.332557573241   0.332557573241
  0.309121892802   0.669325474032   0.669325474032
  0.690878107198   0.669325474032   0.669325474032
