Primitive Cell
  1.000000
    4.47942456565661    0.00000000000000    0.00000000000000
    0.01638825655878    4.64712571068209    0.00000000000000
    0.00000942264218    0.00002689520287    5.30059622548563
  C   Mn  N 
   1   8   3
DIRECT
    0.0000052149867489    0.7499917168556902    0.3579650636678042     C1
    0.7641306181919990    0.0737136618793331    0.8944771420482835    Mn1
    0.2358750637263877    0.4262727816880530    0.8944831322817071    Mn2
    0.2598633701870092    0.9240700780804706    0.6075531535691483    Mn3
    0.7401561632409059    0.5759234678559786    0.6075580189341614    Mn4
    0.2606335893616971    0.4189195876003247    0.3943352479945922    Mn5
    0.7393768560153012    0.0810861334690361    0.3943399715847780    Mn6
    0.7602162320820485    0.5738593230998665    0.1042550358985702    Mn7
    0.2398024214193142    0.9261485408625831    0.1042601131765092    Mn8
    0.5000134117927728    0.7500063725885726    0.8580670395568242     N1
    0.9999981593456703    0.2500125431287890    0.6430553949170159     N2
    0.4999977193221473    0.2499933763992941    0.1396469035255994     N3
