Primitive Cell
  1.000000
    2.66421537769965   -4.60222936392337    0.00000000000000
    2.66421537769965    4.60222936392337    0.00000000000000
   -1.78748339297714    0.00000000000000    5.01656282483132
  C   Ti
   5   6
DIRECT
    0.6666361533809524    0.3333638466190476    0.0000000000000000     C1
    0.3333638466190476    0.6666361533809524    0.0000000000000000     C2
    0.8337039599237863    0.1662960400762137    0.5000000000000000     C3
    0.5000000000000000    0.5000000000000000    0.5000000000000000     C4
    0.1662960400762137    0.8337039599237863    0.5000000000000000     C5
    0.4355728398627446    0.0857133826918823    0.2543216207081236    Ti1
    0.0857133826918823    0.4355728398627445    0.2543216207081236    Ti2
    0.7376323601206811    0.7376323601206811    0.2628564891695169    Ti3
    0.2623676398793189    0.2623676398793189    0.7371435108304831    Ti4
    0.9142866173081177    0.5644271601372554    0.7456783792918764    Ti5
    0.5644271601372555    0.9142866173081177    0.7456783792918764    Ti6
