generated by phonopy
   1.0
     6.0929772822904917    0.0000000000000000    0.0000000000000000
    -3.0464886411452459    5.2766731111464775    0.0000000000000000
     0.0000000000000000    0.0000000000000000   14.9414636881988692
C N Ti
  16    8   24
Direct
  0.3333333333334991  0.1666666666665008  0.1650706587059098
  0.8333333333334991  0.1666666666665008  0.1650706587059098
  0.3333333333334991  0.6666666666665009  0.1650706587059098
  0.8333333333334991  0.6666666666665009  0.1650706587059098
  0.3333333333334991  0.1666666666665008  0.6650706587059098
  0.8333333333334991  0.1666666666665008  0.6650706587059098
  0.3333333333334991  0.6666666666665009  0.6650706587059098
  0.8333333333334991  0.6666666666665009  0.6650706587059098
  0.1666666666665008  0.3333333333334991  0.3349293412940902
  0.6666666666665009  0.3333333333334991  0.3349293412940902
  0.1666666666665008  0.8333333333334991  0.3349293412940902
  0.6666666666665009  0.8333333333334991  0.3349293412940902
  0.1666666666665008  0.3333333333334991  0.8349293412940902
  0.6666666666665009  0.3333333333334991  0.8349293412940902
  0.1666666666665008  0.8333333333334991  0.8349293412940902
  0.6666666666665009  0.8333333333334991  0.8349293412940902
  0.0000000000000000  0.0000000000000000  0.0000000000000000
  0.5000000000000000  0.0000000000000000  0.0000000000000000
  0.0000000000000000  0.5000000000000000  0.0000000000000000
  0.5000000000000000  0.5000000000000000  0.0000000000000000
  0.0000000000000000  0.0000000000000000  0.5000000000000000
  0.5000000000000000  0.0000000000000000  0.5000000000000000
  0.0000000000000000  0.5000000000000000  0.5000000000000000
  0.5000000000000000  0.5000000000000000  0.5000000000000000
  0.1666666666665008  0.3333333333334991  0.0846108355552574
  0.6666666666665009  0.3333333333334991  0.0846108355552574
  0.1666666666665008  0.8333333333334991  0.0846108355552574
  0.6666666666665009  0.8333333333334991  0.0846108355552574
  0.1666666666665008  0.3333333333334991  0.5846108355552575
  0.6666666666665009  0.3333333333334991  0.5846108355552575
  0.1666666666665008  0.8333333333334991  0.5846108355552575
  0.6666666666665009  0.8333333333334991  0.5846108355552575
  0.0000000000000000  0.0000000000000000  0.2500000000000000
  0.5000000000000000  0.0000000000000000  0.2500000000000000
  0.0000000000000000  0.5000000000000000  0.2500000000000000
  0.5000000000000000  0.5000000000000000  0.2500000000000000
  0.0000000000000000  0.0000000000000000  0.7500000000000000
  0.5000000000000000  0.0000000000000000  0.7500000000000000
  0.0000000000000000  0.5000000000000000  0.7500000000000000
  0.5000000000000000  0.5000000000000000  0.7500000000000000
  0.3333333333334991  0.1666666666665008  0.4153891644447426
  0.8333333333334991  0.1666666666665008  0.4153891644447426
  0.3333333333334991  0.6666666666665009  0.4153891644447426
  0.8333333333334991  0.6666666666665009  0.4153891644447426
  0.3333333333334991  0.1666666666665008  0.9153891644447425
  0.8333333333334991  0.1666666666665008  0.9153891644447425
  0.3333333333334991  0.6666666666665009  0.9153891644447425
  0.8333333333334991  0.6666666666665009  0.9153891644447425
