B Be Mn
1.0
  5.247795229000   0.000000000000   0.000000000000
  0.000000000000   5.247795229000   0.000000000000
  0.000000000000   0.000000000000   2.829224837000
B Be Mn
4 2 4
Direct
  0.380268040228   0.119731959772   0.000000000000
  0.880268040228   0.380268040228   0.000000000000
  0.119731959772   0.619731959772   0.000000000000
  0.619731959772   0.880268040228   0.000000000000
  0.000000000000   0.000000000000   0.000000000000
  0.500000000000   0.500000000000   0.000000000000
  0.674284847796   0.174284847796   0.500000000000
  0.174284847796   0.325715152204   0.500000000000
  0.825715152204   0.674284847796   0.500000000000
  0.325715152204   0.825715152204   0.500000000000
