Ti Be                                   
   1.00000000000000     
    -0.0000000000000000    5.2075609226386579    5.2075609226386579
     5.2075609226386579   -0.0000000000000000    5.2075609226386579
     5.2075609226386579    5.2075609226386579    0.0000000000000000
   Be   Ti
    23     6
Direct
  0.0000000000000000 -0.0000000000000000  0.0000000000000000
  0.5000000000000000 -0.0000000000000000  0.0000000000000000
  0.0000000000000000  0.5000000000000000  0.0000000000000000
  0.5000000000000000  0.5000000000000000  0.0000000000000000
  0.3252032515262621  0.3252032515262621  0.0243902454202188
  0.1239695458777460  0.1239695458777460  0.1239695458777460
  0.6280913623657600  0.1239695458777460  0.1239695458777460
  0.1239695458777460  0.6280913623657600  0.1239695458777460
  0.3252032515262621  0.0243902454202188  0.3252032515262621
  0.0243902454202188  0.3252032515262621  0.3252032515262621
  0.3252032515262621  0.3252032515262621  0.3252032515262621
  0.8760304541222540  0.8760304541222540  0.3719086376342399
  0.0000000000000000 -0.0000000000000000  0.5000000000000000
  0.5000000000000000 -0.0000000000000000  0.5000000000000000
  0.0000000000000000  0.5000000000000000  0.5000000000000000
  0.1239695458777460  0.1239695458777460  0.6280913623657600
  0.6747967484737378  0.6747967484737378  0.6747967484737378
  0.9756097545797812  0.6747967484737378  0.6747967484737378
  0.6747967484737378  0.9756097545797812  0.6747967484737378
  0.8760304541222540  0.3719086376342399  0.8760304541222540
  0.3719086376342399  0.8760304541222540  0.8760304541222540
  0.8760304541222540  0.8760304541222540  0.8760304541222540
  0.6747967484737378  0.6747967484737378  0.9756097545797812
  0.6961062808268336  0.3038937191731664  0.3038937191731664
  0.3038937191731664  0.6961062808268336  0.3038937191731664
  0.6961062808268336  0.6961062808268336  0.3038937191731664
  0.3038937191731664  0.3038937191731664  0.6961062808268336
  0.6961062808268336  0.3038937191731664  0.6961062808268336
  0.3038937191731664  0.6961062808268336  0.6961062808268336
 
  0.00000000E+00  0.00000000E+00  0.00000000E+00
  0.00000000E+00  0.00000000E+00  0.00000000E+00
  0.00000000E+00  0.00000000E+00  0.00000000E+00
  0.00000000E+00  0.00000000E+00  0.00000000E+00
  0.00000000E+00  0.00000000E+00  0.00000000E+00
  0.00000000E+00  0.00000000E+00  0.00000000E+00
  0.00000000E+00  0.00000000E+00  0.00000000E+00
  0.00000000E+00  0.00000000E+00  0.00000000E+00
  0.00000000E+00  0.00000000E+00  0.00000000E+00
  0.00000000E+00  0.00000000E+00  0.00000000E+00
  0.00000000E+00  0.00000000E+00  0.00000000E+00
  0.00000000E+00  0.00000000E+00  0.00000000E+00
  0.00000000E+00  0.00000000E+00  0.00000000E+00
  0.00000000E+00  0.00000000E+00  0.00000000E+00
  0.00000000E+00  0.00000000E+00  0.00000000E+00
  0.00000000E+00  0.00000000E+00  0.00000000E+00
  0.00000000E+00  0.00000000E+00  0.00000000E+00
  0.00000000E+00  0.00000000E+00  0.00000000E+00
  0.00000000E+00  0.00000000E+00  0.00000000E+00
  0.00000000E+00  0.00000000E+00  0.00000000E+00
  0.00000000E+00  0.00000000E+00  0.00000000E+00
  0.00000000E+00  0.00000000E+00  0.00000000E+00
  0.00000000E+00  0.00000000E+00  0.00000000E+00
  0.00000000E+00  0.00000000E+00  0.00000000E+00
  0.00000000E+00  0.00000000E+00  0.00000000E+00
  0.00000000E+00  0.00000000E+00  0.00000000E+00
  0.00000000E+00  0.00000000E+00  0.00000000E+00
  0.00000000E+00  0.00000000E+00  0.00000000E+00
  0.00000000E+00  0.00000000E+00  0.00000000E+00
