generated by phonopy
   1.0
     0.0000000000000000   10.4151218452773158   10.4151218452773158
    10.4151218452773158    0.0000000000000000   10.4151218452773158
    10.4151218452773158   10.4151218452773158    0.0000000000000000
Be Ti
 184   48
Direct
  0.0000000000000000  0.0000000000000000  0.0000000000000000
  0.5000000000000000  0.0000000000000000  0.0000000000000000
  0.0000000000000000  0.5000000000000000  0.0000000000000000
  0.5000000000000000  0.5000000000000000  0.0000000000000000
  0.0000000000000000  0.0000000000000000  0.5000000000000000
  0.5000000000000000  0.0000000000000000  0.5000000000000000
  0.0000000000000000  0.5000000000000000  0.5000000000000000
  0.5000000000000000  0.5000000000000000  0.5000000000000000
  0.2500000000000000  0.0000000000000000  0.0000000000000000
  0.7500000000000000  0.0000000000000000  0.0000000000000000
  0.2500000000000000  0.5000000000000000  0.0000000000000000
  0.7500000000000000  0.5000000000000000  0.0000000000000000
  0.2500000000000000  0.0000000000000000  0.5000000000000000
  0.7500000000000000  0.0000000000000000  0.5000000000000000
  0.2500000000000000  0.5000000000000000  0.5000000000000000
  0.7500000000000000  0.5000000000000000  0.5000000000000000
  0.0000000000000000  0.2500000000000000  0.0000000000000000
  0.5000000000000000  0.2500000000000000  0.0000000000000000
  0.0000000000000000  0.7500000000000000  0.0000000000000000
  0.5000000000000000  0.7500000000000000  0.0000000000000000
  0.0000000000000000  0.2500000000000000  0.5000000000000000
  0.5000000000000000  0.2500000000000000  0.5000000000000000
  0.0000000000000000  0.7500000000000000  0.5000000000000000
  0.5000000000000000  0.7500000000000000  0.5000000000000000
  0.2500000000000000  0.2500000000000000  0.0000000000000000
  0.7500000000000000  0.2500000000000000  0.0000000000000000
  0.2500000000000000  0.7500000000000000  0.0000000000000000
  0.7500000000000000  0.7500000000000000  0.0000000000000000
  0.2500000000000000  0.2500000000000000  0.5000000000000000
  0.7500000000000000  0.2500000000000000  0.5000000000000000
  0.2500000000000000  0.7500000000000000  0.5000000000000000
  0.7500000000000000  0.7500000000000000  0.5000000000000000
  0.1626016257631311  0.1626016257631311  0.0121951227101094
  0.6626016257631311  0.1626016257631311  0.0121951227101094
  0.1626016257631311  0.6626016257631311  0.0121951227101094
  0.6626016257631311  0.6626016257631311  0.0121951227101094
  0.1626016257631311  0.1626016257631311  0.5121951227101094
  0.6626016257631311  0.1626016257631311  0.5121951227101094
  0.1626016257631311  0.6626016257631311  0.5121951227101094
  0.6626016257631311  0.6626016257631311  0.5121951227101094
  0.0619847729388730  0.0619847729388730  0.0619847729388730
  0.5619847729388729  0.0619847729388730  0.0619847729388730
  0.0619847729388730  0.5619847729388729  0.0619847729388730
  0.5619847729388729  0.5619847729388729  0.0619847729388730
  0.0619847729388730  0.0619847729388730  0.5619847729388729
  0.5619847729388729  0.0619847729388730  0.5619847729388729
  0.0619847729388730  0.5619847729388729  0.5619847729388729
  0.5619847729388729  0.5619847729388729  0.5619847729388729
  0.3140456811828800  0.0619847729388730  0.0619847729388730
  0.8140456811828800  0.0619847729388730  0.0619847729388730
  0.3140456811828800  0.5619847729388729  0.0619847729388730
  0.8140456811828800  0.5619847729388729  0.0619847729388730
  0.3140456811828800  0.0619847729388730  0.5619847729388729
  0.8140456811828800  0.0619847729388730  0.5619847729388729
  0.3140456811828800  0.5619847729388729  0.5619847729388729
  0.8140456811828800  0.5619847729388729  0.5619847729388729
  0.0619847729388730  0.3140456811828800  0.0619847729388730
  0.5619847729388729  0.3140456811828800  0.0619847729388730
  0.0619847729388730  0.8140456811828800  0.0619847729388730
  0.5619847729388729  0.8140456811828800  0.0619847729388730
  0.0619847729388730  0.3140456811828800  0.5619847729388729
  0.5619847729388729  0.3140456811828800  0.5619847729388729
  0.0619847729388730  0.8140456811828800  0.5619847729388729
  0.5619847729388729  0.8140456811828800  0.5619847729388729
  0.1626016257631311  0.0121951227101094  0.1626016257631311
  0.6626016257631311  0.0121951227101094  0.1626016257631311
  0.1626016257631311  0.5121951227101094  0.1626016257631311
  0.6626016257631311  0.5121951227101094  0.1626016257631311
  0.1626016257631311  0.0121951227101094  0.6626016257631311
  0.6626016257631311  0.0121951227101094  0.6626016257631311
  0.1626016257631311  0.5121951227101094  0.6626016257631311
  0.6626016257631311  0.5121951227101094  0.6626016257631311
  0.0121951227101094  0.1626016257631311  0.1626016257631311
  0.5121951227101094  0.1626016257631311  0.1626016257631311
  0.0121951227101094  0.6626016257631311  0.1626016257631311
  0.5121951227101094  0.6626016257631311  0.1626016257631311
  0.0121951227101094  0.1626016257631311  0.6626016257631311
  0.5121951227101094  0.1626016257631311  0.6626016257631311
  0.0121951227101094  0.6626016257631311  0.6626016257631311
  0.5121951227101094  0.6626016257631311  0.6626016257631311
  0.1626016257631311  0.1626016257631311  0.1626016257631311
  0.6626016257631311  0.1626016257631311  0.1626016257631311
  0.1626016257631311  0.6626016257631311  0.1626016257631311
  0.6626016257631311  0.6626016257631311  0.1626016257631311
  0.1626016257631311  0.1626016257631311  0.6626016257631311
  0.6626016257631311  0.1626016257631311  0.6626016257631311
  0.1626016257631311  0.6626016257631311  0.6626016257631311
  0.6626016257631311  0.6626016257631311  0.6626016257631311
  0.4380152270611270  0.4380152270611270  0.1859543188171200
  0.9380152270611271  0.4380152270611270  0.1859543188171200
  0.4380152270611270  0.9380152270611271  0.1859543188171200
  0.9380152270611271  0.9380152270611271  0.1859543188171200
  0.4380152270611270  0.4380152270611270  0.6859543188171200
  0.9380152270611271  0.4380152270611270  0.6859543188171200
  0.4380152270611270  0.9380152270611271  0.6859543188171200
  0.9380152270611271  0.9380152270611271  0.6859543188171200
  0.0000000000000000  0.0000000000000000  0.2500000000000000
  0.5000000000000000  0.0000000000000000  0.2500000000000000
  0.0000000000000000  0.5000000000000000  0.2500000000000000
  0.5000000000000000  0.5000000000000000  0.2500000000000000
  0.0000000000000000  0.0000000000000000  0.7500000000000000
  0.5000000000000000  0.0000000000000000  0.7500000000000000
  0.0000000000000000  0.5000000000000000  0.7500000000000000
  0.5000000000000000  0.5000000000000000  0.7500000000000000
  0.2500000000000000  0.0000000000000000  0.2500000000000000
  0.7500000000000000  0.0000000000000000  0.2500000000000000
  0.2500000000000000  0.5000000000000000  0.2500000000000000
  0.7500000000000000  0.5000000000000000  0.2500000000000000
  0.2500000000000000  0.0000000000000000  0.7500000000000000
  0.7500000000000000  0.0000000000000000  0.7500000000000000
  0.2500000000000000  0.5000000000000000  0.7500000000000000
  0.7500000000000000  0.5000000000000000  0.7500000000000000
  0.0000000000000000  0.2500000000000000  0.2500000000000000
  0.5000000000000000  0.2500000000000000  0.2500000000000000
  0.0000000000000000  0.7500000000000000  0.2500000000000000
  0.5000000000000000  0.7500000000000000  0.2500000000000000
  0.0000000000000000  0.2500000000000000  0.7500000000000000
  0.5000000000000000  0.2500000000000000  0.7500000000000000
  0.0000000000000000  0.7500000000000000  0.7500000000000000
  0.5000000000000000  0.7500000000000000  0.7500000000000000
  0.0619847729388730  0.0619847729388730  0.3140456811828800
  0.5619847729388729  0.0619847729388730  0.3140456811828800
  0.0619847729388730  0.5619847729388729  0.3140456811828800
  0.5619847729388729  0.5619847729388729  0.3140456811828800
  0.0619847729388730  0.0619847729388730  0.8140456811828800
  0.5619847729388729  0.0619847729388730  0.8140456811828800
  0.0619847729388730  0.5619847729388729  0.8140456811828800
  0.5619847729388729  0.5619847729388729  0.8140456811828800
  0.3373983742368689  0.3373983742368689  0.3373983742368689
  0.8373983742368689  0.3373983742368689  0.3373983742368689
  0.3373983742368689  0.8373983742368689  0.3373983742368689
  0.8373983742368689  0.8373983742368689  0.3373983742368689
  0.3373983742368689  0.3373983742368689  0.8373983742368689
  0.8373983742368689  0.3373983742368689  0.8373983742368689
  0.3373983742368689  0.8373983742368689  0.8373983742368689
  0.8373983742368689  0.8373983742368689  0.8373983742368689
  0.4878048772898906  0.3373983742368689  0.3373983742368689
  0.9878048772898906  0.3373983742368689  0.3373983742368689
  0.4878048772898906  0.8373983742368689  0.3373983742368689
  0.9878048772898906  0.8373983742368689  0.3373983742368689
  0.4878048772898906  0.3373983742368689  0.8373983742368689
  0.9878048772898906  0.3373983742368689  0.8373983742368689
  0.4878048772898906  0.8373983742368689  0.8373983742368689
  0.9878048772898906  0.8373983742368689  0.8373983742368689
  0.3373983742368689  0.4878048772898906  0.3373983742368689
  0.8373983742368689  0.4878048772898906  0.3373983742368689
  0.3373983742368689  0.9878048772898906  0.3373983742368689
  0.8373983742368689  0.9878048772898906  0.3373983742368689
  0.3373983742368689  0.4878048772898906  0.8373983742368689
  0.8373983742368689  0.4878048772898906  0.8373983742368689
  0.3373983742368689  0.9878048772898906  0.8373983742368689
  0.8373983742368689  0.9878048772898906  0.8373983742368689
  0.4380152270611270  0.1859543188171200  0.4380152270611270
  0.9380152270611271  0.1859543188171200  0.4380152270611270
  0.4380152270611270  0.6859543188171200  0.4380152270611270
  0.9380152270611271  0.6859543188171200  0.4380152270611270
  0.4380152270611270  0.1859543188171200  0.9380152270611271
  0.9380152270611271  0.1859543188171200  0.9380152270611271
  0.4380152270611270  0.6859543188171200  0.9380152270611271
  0.9380152270611271  0.6859543188171200  0.9380152270611271
  0.1859543188171200  0.4380152270611270  0.4380152270611270
  0.6859543188171200  0.4380152270611270  0.4380152270611270
  0.1859543188171200  0.9380152270611271  0.4380152270611270
  0.6859543188171200  0.9380152270611271  0.4380152270611270
  0.1859543188171200  0.4380152270611270  0.9380152270611271
  0.6859543188171200  0.4380152270611270  0.9380152270611271
  0.1859543188171200  0.9380152270611271  0.9380152270611271
  0.6859543188171200  0.9380152270611271  0.9380152270611271
  0.4380152270611270  0.4380152270611270  0.4380152270611270
  0.9380152270611271  0.4380152270611270  0.4380152270611270
  0.4380152270611270  0.9380152270611271  0.4380152270611270
  0.9380152270611271  0.9380152270611271  0.4380152270611270
  0.4380152270611270  0.4380152270611270  0.9380152270611271
  0.9380152270611271  0.4380152270611270  0.9380152270611271
  0.4380152270611270  0.9380152270611271  0.9380152270611271
  0.9380152270611271  0.9380152270611271  0.9380152270611271
  0.3373983742368689  0.3373983742368689  0.4878048772898906
  0.8373983742368689  0.3373983742368689  0.4878048772898906
  0.3373983742368689  0.8373983742368689  0.4878048772898906
  0.8373983742368689  0.8373983742368689  0.4878048772898906
  0.3373983742368689  0.3373983742368689  0.9878048772898906
  0.8373983742368689  0.3373983742368689  0.9878048772898906
  0.3373983742368689  0.8373983742368689  0.9878048772898906
  0.8373983742368689  0.8373983742368689  0.9878048772898906
  0.3480531404134168  0.1519468595865832  0.1519468595865832
  0.8480531404134168  0.1519468595865832  0.1519468595865832
  0.3480531404134168  0.6519468595865832  0.1519468595865832
  0.8480531404134168  0.6519468595865832  0.1519468595865832
  0.3480531404134168  0.1519468595865832  0.6519468595865832
  0.8480531404134168  0.1519468595865832  0.6519468595865832
  0.3480531404134168  0.6519468595865832  0.6519468595865832
  0.8480531404134168  0.6519468595865832  0.6519468595865832
  0.1519468595865832  0.3480531404134168  0.1519468595865832
  0.6519468595865832  0.3480531404134168  0.1519468595865832
  0.1519468595865832  0.8480531404134168  0.1519468595865832
  0.6519468595865832  0.8480531404134168  0.1519468595865832
  0.1519468595865832  0.3480531404134168  0.6519468595865832
  0.6519468595865832  0.3480531404134168  0.6519468595865832
  0.1519468595865832  0.8480531404134168  0.6519468595865832
  0.6519468595865832  0.8480531404134168  0.6519468595865832
  0.3480531404134168  0.3480531404134168  0.1519468595865832
  0.8480531404134168  0.3480531404134168  0.1519468595865832
  0.3480531404134168  0.8480531404134168  0.1519468595865832
  0.8480531404134168  0.8480531404134168  0.1519468595865832
  0.3480531404134168  0.3480531404134168  0.6519468595865832
  0.8480531404134168  0.3480531404134168  0.6519468595865832
  0.3480531404134168  0.8480531404134168  0.6519468595865832
  0.8480531404134168  0.8480531404134168  0.6519468595865832
  0.1519468595865832  0.1519468595865832  0.3480531404134168
  0.6519468595865832  0.1519468595865832  0.3480531404134168
  0.1519468595865832  0.6519468595865832  0.3480531404134168
  0.6519468595865832  0.6519468595865832  0.3480531404134168
  0.1519468595865832  0.1519468595865832  0.8480531404134168
  0.6519468595865832  0.1519468595865832  0.8480531404134168
  0.1519468595865832  0.6519468595865832  0.8480531404134168
  0.6519468595865832  0.6519468595865832  0.8480531404134168
  0.3480531404134168  0.1519468595865832  0.3480531404134168
  0.8480531404134168  0.1519468595865832  0.3480531404134168
  0.3480531404134168  0.6519468595865832  0.3480531404134168
  0.8480531404134168  0.6519468595865832  0.3480531404134168
  0.3480531404134168  0.1519468595865832  0.8480531404134168
  0.8480531404134168  0.1519468595865832  0.8480531404134168
  0.3480531404134168  0.6519468595865832  0.8480531404134168
  0.8480531404134168  0.6519468595865832  0.8480531404134168
  0.1519468595865832  0.3480531404134168  0.3480531404134168
  0.6519468595865832  0.3480531404134168  0.3480531404134168
  0.1519468595865832  0.8480531404134168  0.3480531404134168
  0.6519468595865832  0.8480531404134168  0.3480531404134168
  0.1519468595865832  0.3480531404134168  0.8480531404134168
  0.6519468595865832  0.3480531404134168  0.8480531404134168
  0.1519468595865832  0.8480531404134168  0.8480531404134168
  0.6519468595865832  0.8480531404134168  0.8480531404134168
