Primitive Cell
  1.000000
   -2.92425095776234    5.10523306464285    4.16585655417434
    2.92425095776234   -5.10523306464285    4.16585655417434
    2.92425095776234    5.10523306464285   -4.16585655417434
  B   Li
  30   2
DIRECT
    0.2556163746351670    0.6538241952406540    0.6017921793945127     B1
    0.1180151639723497    0.8263883302970747    0.6114670463414691     B2
    0.5483220317521884    0.8999632446448294    0.6483587871073591     B3
    0.1164066546924447    0.4513993562426383    0.6650072984498063     B4
    0.8826811785928830    0.7119604888627764    0.6652139955100380     B5
    0.4532535066472616    0.2880395111372236    0.6707206897301066     B6
    0.8819848360276503    0.4934518823691194    0.7083731663247250     B7
    0.5035992150079154    0.7535992150079153    0.7500000000000000     B8
    0.2850787160443944    0.1736116697029252    0.7916268336752750     B9
    0.1173188214071170    0.7825328169171550    0.8292793102698934    B10
    0.5467464933527384    0.2174671830828450    0.8347860044899620    B11
    0.2863920577928321    0.4513993562426383    0.8349927015501936    B12
    0.7516044575374703    0.8999632446448294    0.8516412128926409    B13
    0.7149212839556056    0.5065481176308806    0.8885329536585309    B14
    0.5520320158461414    0.6538241952406540    0.8982078206054872    B15
    0.4479679841538586    0.3461758047593458    0.1017921793945127    B16
    0.2850787160443944    0.4934518823691194    0.1114670463414691    B17
    0.2483955424625297    0.1000367553551706    0.1483587871073590    B18
    0.7136079422071679    0.5486006437573616    0.1650072984498063    B19
    0.4532535066472616    0.7825328169171550    0.1652139955100380    B20
    0.8826811785928830    0.2174671830828450    0.1707206897301066    B21
    0.7149212839556056    0.8263883302970747    0.2083731663247250    B22
    0.4964007849920847    0.2464007849920847    0.2499999999999999    B23
    0.1180151639723497    0.5065481176308806    0.2916268336752749    B24
    0.5467464933527384    0.7119604888627764    0.3292793102698934    B25
    0.1173188214071170    0.2880395111372236    0.3347860044899620    B26
    0.8835933453075553    0.5486006437573616    0.3349927015501936    B27
    0.4516779682478116    0.1000367553551706    0.3516412128926409    B28
    0.8819848360276503    0.1736116697029252    0.3885329536585308    B29
    0.7443836253648332    0.3461758047593458    0.3982078206054872    B30
    0.9252778926022378    0.1752778926022378    0.7500000000000000    Li1
    0.0747221073977622    0.8247221073977622    0.2499999999999999    Li2
