B N Be                                  
   1.00000000000000     
     2.7419625316551532    1.5830728057585564    4.1703885821175133
    -2.7419625316551532    1.5830728057585564    4.1703885821175133
    -0.0000000000000000   -3.1661456115171127    4.1703885821175133
   B    Be   N 
    12     1     2
Direct
  0.3306774607130935  0.0034876584167411  0.0034876584167411
  0.0034876584167411  0.3306774607130935  0.0034876584167411
  0.6765412833506718  0.1970094378411976  0.1970094378411976
  0.1970094378411976  0.6765412833506718  0.1970094378411976
  0.8029905621588023  0.8029905621588023  0.3234587166493283
  0.0034876584167411  0.0034876584167411  0.3306774607130935
  0.9965123415832590  0.9965123415832590  0.6693225392869064
  0.1970094378411976  0.1970094378411976  0.6765412833506718
  0.8029905621588023  0.3234587166493283  0.8029905621588023
  0.3234587166493283  0.8029905621588023  0.8029905621588023
  0.9965123415832590  0.6693225392869064  0.9965123415832590
  0.6693225392869064  0.9965123415832590  0.9965123415832590
  0.5000000000000000  0.5000000000000000  0.5000000000000000
  0.3763916742029503  0.3763916742029503  0.3763916742029503
  0.6236083257970498  0.6236083257970498  0.6236083257970498
 
  0.00000000E+00  0.00000000E+00  0.00000000E+00
  0.00000000E+00  0.00000000E+00  0.00000000E+00
  0.00000000E+00  0.00000000E+00  0.00000000E+00
  0.00000000E+00  0.00000000E+00  0.00000000E+00
  0.00000000E+00  0.00000000E+00  0.00000000E+00
  0.00000000E+00  0.00000000E+00  0.00000000E+00
  0.00000000E+00  0.00000000E+00  0.00000000E+00
  0.00000000E+00  0.00000000E+00  0.00000000E+00
  0.00000000E+00  0.00000000E+00  0.00000000E+00
  0.00000000E+00  0.00000000E+00  0.00000000E+00
  0.00000000E+00  0.00000000E+00  0.00000000E+00
  0.00000000E+00  0.00000000E+00  0.00000000E+00
  0.00000000E+00  0.00000000E+00  0.00000000E+00
  0.00000000E+00  0.00000000E+00  0.00000000E+00
  0.00000000E+00  0.00000000E+00  0.00000000E+00
