generated by phonopy
   1.0
     5.4839250633103065    3.1661456115171127    8.3407771642350266
    -5.4839250633103065    3.1661456115171127    8.3407771642350266
     0.0000000000000000   -6.3322912230342254    8.3407771642350266
B Be N
  96    8   16
Direct
  0.1653387303565468  0.0017438292083706  0.0017438292083706
  0.6653387303565468  0.0017438292083706  0.0017438292083706
  0.1653387303565468  0.5017438292083706  0.0017438292083706
  0.6653387303565468  0.5017438292083706  0.0017438292083706
  0.1653387303565468  0.0017438292083706  0.5017438292083706
  0.6653387303565468  0.0017438292083706  0.5017438292083706
  0.1653387303565468  0.5017438292083706  0.5017438292083706
  0.6653387303565468  0.5017438292083706  0.5017438292083706
  0.0017438292083706  0.1653387303565468  0.0017438292083706
  0.5017438292083706  0.1653387303565468  0.0017438292083706
  0.0017438292083706  0.6653387303565468  0.0017438292083706
  0.5017438292083706  0.6653387303565468  0.0017438292083706
  0.0017438292083706  0.1653387303565468  0.5017438292083706
  0.5017438292083706  0.1653387303565468  0.5017438292083706
  0.0017438292083706  0.6653387303565468  0.5017438292083706
  0.5017438292083706  0.6653387303565468  0.5017438292083706
  0.3382706416753359  0.0985047189205988  0.0985047189205988
  0.8382706416753358  0.0985047189205988  0.0985047189205988
  0.3382706416753359  0.5985047189205988  0.0985047189205988
  0.8382706416753358  0.5985047189205988  0.0985047189205988
  0.3382706416753359  0.0985047189205988  0.5985047189205988
  0.8382706416753358  0.0985047189205988  0.5985047189205988
  0.3382706416753359  0.5985047189205988  0.5985047189205988
  0.8382706416753358  0.5985047189205988  0.5985047189205988
  0.0985047189205988  0.3382706416753359  0.0985047189205988
  0.5985047189205988  0.3382706416753359  0.0985047189205988
  0.0985047189205988  0.8382706416753358  0.0985047189205988
  0.5985047189205988  0.8382706416753358  0.0985047189205988
  0.0985047189205988  0.3382706416753359  0.5985047189205988
  0.5985047189205988  0.3382706416753359  0.5985047189205988
  0.0985047189205988  0.8382706416753358  0.5985047189205988
  0.5985047189205988  0.8382706416753358  0.5985047189205988
  0.4014952810794011  0.4014952810794011  0.1617293583246641
  0.9014952810794011  0.4014952810794011  0.1617293583246641
  0.4014952810794011  0.9014952810794011  0.1617293583246641
  0.9014952810794011  0.9014952810794011  0.1617293583246641
  0.4014952810794011  0.4014952810794011  0.6617293583246642
  0.9014952810794011  0.4014952810794011  0.6617293583246642
  0.4014952810794011  0.9014952810794011  0.6617293583246642
  0.9014952810794011  0.9014952810794011  0.6617293583246642
  0.0017438292083706  0.0017438292083706  0.1653387303565468
  0.5017438292083706  0.0017438292083706  0.1653387303565468
  0.0017438292083706  0.5017438292083706  0.1653387303565468
  0.5017438292083706  0.5017438292083706  0.1653387303565468
  0.0017438292083706  0.0017438292083706  0.6653387303565468
  0.5017438292083706  0.0017438292083706  0.6653387303565468
  0.0017438292083706  0.5017438292083706  0.6653387303565468
  0.5017438292083706  0.5017438292083706  0.6653387303565468
  0.4982561707916295  0.4982561707916295  0.3346612696434532
  0.9982561707916295  0.4982561707916295  0.3346612696434532
  0.4982561707916295  0.9982561707916295  0.3346612696434532
  0.9982561707916295  0.9982561707916295  0.3346612696434532
  0.4982561707916295  0.4982561707916295  0.8346612696434532
  0.9982561707916295  0.4982561707916295  0.8346612696434532
  0.4982561707916295  0.9982561707916295  0.8346612696434532
  0.9982561707916295  0.9982561707916295  0.8346612696434532
  0.0985047189205988  0.0985047189205988  0.3382706416753359
  0.5985047189205988  0.0985047189205988  0.3382706416753359
  0.0985047189205988  0.5985047189205988  0.3382706416753359
  0.5985047189205988  0.5985047189205988  0.3382706416753359
  0.0985047189205988  0.0985047189205988  0.8382706416753358
  0.5985047189205988  0.0985047189205988  0.8382706416753358
  0.0985047189205988  0.5985047189205988  0.8382706416753358
  0.5985047189205988  0.5985047189205988  0.8382706416753358
  0.4014952810794011  0.1617293583246641  0.4014952810794011
  0.9014952810794011  0.1617293583246641  0.4014952810794011
  0.4014952810794011  0.6617293583246642  0.4014952810794011
  0.9014952810794011  0.6617293583246642  0.4014952810794011
  0.4014952810794011  0.1617293583246641  0.9014952810794011
  0.9014952810794011  0.1617293583246641  0.9014952810794011
  0.4014952810794011  0.6617293583246642  0.9014952810794011
  0.9014952810794011  0.6617293583246642  0.9014952810794011
  0.1617293583246641  0.4014952810794011  0.4014952810794011
  0.6617293583246642  0.4014952810794011  0.4014952810794011
  0.1617293583246641  0.9014952810794011  0.4014952810794011
  0.6617293583246642  0.9014952810794011  0.4014952810794011
  0.1617293583246641  0.4014952810794011  0.9014952810794011
  0.6617293583246642  0.4014952810794011  0.9014952810794011
  0.1617293583246641  0.9014952810794011  0.9014952810794011
  0.6617293583246642  0.9014952810794011  0.9014952810794011
  0.4982561707916295  0.3346612696434532  0.4982561707916295
  0.9982561707916295  0.3346612696434532  0.4982561707916295
  0.4982561707916295  0.8346612696434532  0.4982561707916295
  0.9982561707916295  0.8346612696434532  0.4982561707916295
  0.4982561707916295  0.3346612696434532  0.9982561707916295
  0.9982561707916295  0.3346612696434532  0.9982561707916295
  0.4982561707916295  0.8346612696434532  0.9982561707916295
  0.9982561707916295  0.8346612696434532  0.9982561707916295
  0.3346612696434532  0.4982561707916295  0.4982561707916295
  0.8346612696434532  0.4982561707916295  0.4982561707916295
  0.3346612696434532  0.9982561707916295  0.4982561707916295
  0.8346612696434532  0.9982561707916295  0.4982561707916295
  0.3346612696434532  0.4982561707916295  0.9982561707916295
  0.8346612696434532  0.4982561707916295  0.9982561707916295
  0.3346612696434532  0.9982561707916295  0.9982561707916295
  0.8346612696434532  0.9982561707916295  0.9982561707916295
  0.2500000000000000  0.2500000000000000  0.2500000000000000
  0.7500000000000000  0.2500000000000000  0.2500000000000000
  0.2500000000000000  0.7500000000000000  0.2500000000000000
  0.7500000000000000  0.7500000000000000  0.2500000000000000
  0.2500000000000000  0.2500000000000000  0.7500000000000000
  0.7500000000000000  0.2500000000000000  0.7500000000000000
  0.2500000000000000  0.7500000000000000  0.7500000000000000
  0.7500000000000000  0.7500000000000000  0.7500000000000000
  0.1881958371014751  0.1881958371014751  0.1881958371014751
  0.6881958371014751  0.1881958371014751  0.1881958371014751
  0.1881958371014751  0.6881958371014751  0.1881958371014751
  0.6881958371014751  0.6881958371014751  0.1881958371014751
  0.1881958371014751  0.1881958371014751  0.6881958371014751
  0.6881958371014751  0.1881958371014751  0.6881958371014751
  0.1881958371014751  0.6881958371014751  0.6881958371014751
  0.6881958371014751  0.6881958371014751  0.6881958371014751
  0.3118041628985249  0.3118041628985249  0.3118041628985249
  0.8118041628985249  0.3118041628985249  0.3118041628985249
  0.3118041628985249  0.8118041628985249  0.3118041628985249
  0.8118041628985249  0.8118041628985249  0.3118041628985249
  0.3118041628985249  0.3118041628985249  0.8118041628985249
  0.8118041628985249  0.3118041628985249  0.8118041628985249
  0.3118041628985249  0.8118041628985249  0.8118041628985249
  0.8118041628985249  0.8118041628985249  0.8118041628985249
