V N Be                                  
   1.00000000000000     
     1.4619972138310378   -4.7992385430185101    0.0000000000000000
     1.4619972138310378    4.7992385430185101   -0.0000000000000000
     0.0000000000000000    0.0000000000000000    7.5202793420272531
   Be   N    V 
     2     2     6
Direct
  0.7441528837678369  0.2558471162321630  0.2500000000000000
  0.2558471162321630  0.7441528837678369  0.7500000000000000
  0.0000000000000000 -0.0000000000000000  0.0000000000000000
  0.0000000000000000 -0.0000000000000000  0.5000000000000000
  0.3621684365704166  0.6378315634295834  0.0506680396546678
  0.0589293842629705  0.9410706157370294  0.2500000000000000
  0.3621684365704166  0.6378315634295834  0.4493319603453323
  0.6378315634295834  0.3621684365704166  0.5506680396546677
  0.9410706157370294  0.0589293842629705  0.7500000000000000
  0.6378315634295834  0.3621684365704166  0.9493319603453323
 
  0.00000000E+00  0.00000000E+00  0.00000000E+00
  0.00000000E+00  0.00000000E+00  0.00000000E+00
  0.00000000E+00  0.00000000E+00  0.00000000E+00
  0.00000000E+00  0.00000000E+00  0.00000000E+00
  0.00000000E+00  0.00000000E+00  0.00000000E+00
  0.00000000E+00  0.00000000E+00  0.00000000E+00
  0.00000000E+00  0.00000000E+00  0.00000000E+00
  0.00000000E+00  0.00000000E+00  0.00000000E+00
  0.00000000E+00  0.00000000E+00  0.00000000E+00
  0.00000000E+00  0.00000000E+00  0.00000000E+00
