generated by phonopy
   1.0
     2.9239944276620755   -9.5984770860370201    0.0000000000000000
     2.9239944276620755    9.5984770860370201    0.0000000000000000
     0.0000000000000000    0.0000000000000000   15.0405586840545062
Be N V
  16   16   48
Direct
  0.3720764418839185  0.1279235581160815  0.1250000000000000
  0.8720764418839184  0.1279235581160815  0.1250000000000000
  0.3720764418839185  0.6279235581160815  0.1250000000000000
  0.8720764418839184  0.6279235581160815  0.1250000000000000
  0.3720764418839185  0.1279235581160815  0.6250000000000000
  0.8720764418839184  0.1279235581160815  0.6250000000000000
  0.3720764418839185  0.6279235581160815  0.6250000000000000
  0.8720764418839184  0.6279235581160815  0.6250000000000000
  0.1279235581160815  0.3720764418839185  0.3750000000000000
  0.6279235581160815  0.3720764418839185  0.3750000000000000
  0.1279235581160815  0.8720764418839184  0.3750000000000000
  0.6279235581160815  0.8720764418839184  0.3750000000000000
  0.1279235581160815  0.3720764418839185  0.8750000000000000
  0.6279235581160815  0.3720764418839185  0.8750000000000000
  0.1279235581160815  0.8720764418839184  0.8750000000000000
  0.6279235581160815  0.8720764418839184  0.8750000000000000
  0.0000000000000000  0.0000000000000000  0.0000000000000000
  0.5000000000000000  0.0000000000000000  0.0000000000000000
  0.0000000000000000  0.5000000000000000  0.0000000000000000
  0.5000000000000000  0.5000000000000000  0.0000000000000000
  0.0000000000000000  0.0000000000000000  0.5000000000000000
  0.5000000000000000  0.0000000000000000  0.5000000000000000
  0.0000000000000000  0.5000000000000000  0.5000000000000000
  0.5000000000000000  0.5000000000000000  0.5000000000000000
  0.0000000000000000  0.0000000000000000  0.2500000000000000
  0.5000000000000000  0.0000000000000000  0.2500000000000000
  0.0000000000000000  0.5000000000000000  0.2500000000000000
  0.5000000000000000  0.5000000000000000  0.2500000000000000
  0.0000000000000000  0.0000000000000000  0.7500000000000000
  0.5000000000000000  0.0000000000000000  0.7500000000000000
  0.0000000000000000  0.5000000000000000  0.7500000000000000
  0.5000000000000000  0.5000000000000000  0.7500000000000000
  0.1810842182852083  0.3189157817147917  0.0253340198273339
  0.6810842182852083  0.3189157817147917  0.0253340198273339
  0.1810842182852083  0.8189157817147916  0.0253340198273339
  0.6810842182852083  0.8189157817147916  0.0253340198273339
  0.1810842182852083  0.3189157817147917  0.5253340198273339
  0.6810842182852083  0.3189157817147917  0.5253340198273339
  0.1810842182852083  0.8189157817147916  0.5253340198273339
  0.6810842182852083  0.8189157817147916  0.5253340198273339
  0.0294646921314853  0.4705353078685147  0.1250000000000000
  0.5294646921314853  0.4705353078685147  0.1250000000000000
  0.0294646921314853  0.9705353078685147  0.1250000000000000
  0.5294646921314853  0.9705353078685147  0.1250000000000000
  0.0294646921314853  0.4705353078685147  0.6250000000000000
  0.5294646921314853  0.4705353078685147  0.6250000000000000
  0.0294646921314853  0.9705353078685147  0.6250000000000000
  0.5294646921314853  0.9705353078685147  0.6250000000000000
  0.1810842182852083  0.3189157817147917  0.2246659801726661
  0.6810842182852083  0.3189157817147917  0.2246659801726661
  0.1810842182852083  0.8189157817147916  0.2246659801726661
  0.6810842182852083  0.8189157817147916  0.2246659801726661
  0.1810842182852083  0.3189157817147917  0.7246659801726661
  0.6810842182852083  0.3189157817147917  0.7246659801726661
  0.1810842182852083  0.8189157817147916  0.7246659801726661
  0.6810842182852083  0.8189157817147916  0.7246659801726661
  0.3189157817147917  0.1810842182852083  0.2753340198273339
  0.8189157817147916  0.1810842182852083  0.2753340198273339
  0.3189157817147917  0.6810842182852083  0.2753340198273339
  0.8189157817147916  0.6810842182852083  0.2753340198273339
  0.3189157817147917  0.1810842182852083  0.7753340198273339
  0.8189157817147916  0.1810842182852083  0.7753340198273339
  0.3189157817147917  0.6810842182852083  0.7753340198273339
  0.8189157817147916  0.6810842182852083  0.7753340198273339
  0.4705353078685147  0.0294646921314853  0.3750000000000000
  0.9705353078685147  0.0294646921314853  0.3750000000000000
  0.4705353078685147  0.5294646921314853  0.3750000000000000
  0.9705353078685147  0.5294646921314853  0.3750000000000000
  0.4705353078685147  0.0294646921314853  0.8750000000000000
  0.9705353078685147  0.0294646921314853  0.8750000000000000
  0.4705353078685147  0.5294646921314853  0.8750000000000000
  0.9705353078685147  0.5294646921314853  0.8750000000000000
  0.3189157817147917  0.1810842182852083  0.4746659801726661
  0.8189157817147916  0.1810842182852083  0.4746659801726661
  0.3189157817147917  0.6810842182852083  0.4746659801726661
  0.8189157817147916  0.6810842182852083  0.4746659801726661
  0.3189157817147917  0.1810842182852083  0.9746659801726661
  0.8189157817147916  0.1810842182852083  0.9746659801726661
  0.3189157817147917  0.6810842182852083  0.9746659801726661
  0.8189157817147916  0.6810842182852083  0.9746659801726661
