Primitive Cell
  1.000000
    6.80122392631169    0.00000000000000    0.00000000000000
    0.00000000000000    2.07328046716553    3.59663974658538
    0.00000000000000   -2.07328046716553    3.59663974658538
  B   Be  Cr
   1   7   4
DIRECT
    0.0000000000000000    0.8286966317543232    0.8286966317543232     B1
    0.5000000000000000    0.1704450623934606    0.1704450623934606    Be1
    0.5000000000000000    0.6608425957339945    0.1713151597507804    Be2
    0.0000000000000000    0.8291695322883846    0.3430516097113794    Be3
    0.5000000000000000    0.1713151597507805    0.6608425957339945    Be4
    0.0000000000000000    0.3430516097113794    0.8291695322883847    Be5
    0.2460172251373333    0.9963704517592005    0.9963704517592005    Be6
    0.7539827748626667    0.9963704517592005    0.9963704517592005    Be7
    0.1840714465945887    0.3325222127122408    0.3325222127122408    Cr1
    0.8159285534054113    0.3325222127122408    0.3325222127122408    Cr2
    0.3077290050590797    0.6693300035033953    0.6693300035033953    Cr3
    0.6922709949409203    0.6693300035033953    0.6693300035033953    Cr4
