Be B Cr                                 
   1.00000000000000     
     6.8012239263116854    0.0000000000000000    0.0000000000000000
     0.0000000000000000    2.0732804671655329    3.5966397465853803
     0.0000000000000000   -2.0732804671655329    3.5966397465853803
   B    Be   Cr
     1     7     4
Direct
  0.0000000000000000  0.8286966317543232  0.8286966317543232
  0.5000000000000000  0.1704450623934607  0.1704450623934607
  0.5000000000000000  0.6608425957339946  0.1713151597507805
  0.0000000000000000  0.8291695322883847  0.3430516097113793
  0.5000000000000000  0.1713151597507805  0.6608425957339946
  0.0000000000000000  0.3430516097113793  0.8291695322883847
  0.2460172251373333  0.9963704517592006  0.9963704517592006
  0.7539827748626667  0.9963704517592006  0.9963704517592006
  0.1840714465945887  0.3325222127122409  0.3325222127122409
  0.8159285534054113  0.3325222127122409  0.3325222127122409
  0.3077290050590798  0.6693300035033953  0.6693300035033953
  0.6922709949409201  0.6693300035033953  0.6693300035033953
 
  0.00000000E+00  0.00000000E+00  0.00000000E+00
  0.00000000E+00  0.00000000E+00  0.00000000E+00
  0.00000000E+00  0.00000000E+00  0.00000000E+00
  0.00000000E+00  0.00000000E+00  0.00000000E+00
  0.00000000E+00  0.00000000E+00  0.00000000E+00
  0.00000000E+00  0.00000000E+00  0.00000000E+00
  0.00000000E+00  0.00000000E+00  0.00000000E+00
  0.00000000E+00  0.00000000E+00  0.00000000E+00
  0.00000000E+00  0.00000000E+00  0.00000000E+00
  0.00000000E+00  0.00000000E+00  0.00000000E+00
  0.00000000E+00  0.00000000E+00  0.00000000E+00
  0.00000000E+00  0.00000000E+00  0.00000000E+00
